B96 C24                                 
    1.000000000000000     
     9.1631014921555067    0.4238452614096142    4.1261288594916827
     2.6258981006504261    9.4151803982059850    3.4483134402325861
    -0.0788149261779809    1.0450256771466433   10.3102697617230810
   B    C 
    96    24
Direct
  0.1576920790965154  0.4044413520594481  0.4044362523649931
  0.1576920790965154  0.4044413520594481  0.9044362523649935
  0.1576920790965154  0.9044413520594483  0.4044362523649931
  0.1576920790965154  0.9044413520594483  0.9044362523649935
  0.6576920790965157  0.4044413520594481  0.4044362523649931
  0.6576920790965157  0.4044413520594481  0.9044362523649935
  0.6576920790965157  0.9044413520594483  0.4044362523649931
  0.6576920790965157  0.9044413520594483  0.9044362523649935
  0.4013296819013424  0.4012364854955487  0.1580104738770625
  0.4013296819013424  0.4012364854955487  0.6580104738770627
  0.4013296819013424  0.9012364854955487  0.1580104738770625
  0.4013296819013424  0.9012364854955487  0.6580104738770627
  0.9013296819013422  0.4012364854955487  0.1580104738770625
  0.9013296819013422  0.4012364854955487  0.6580104738770627
  0.9013296819013422  0.9012364854955487  0.1580104738770625
  0.9013296819013422  0.9012364854955487  0.6580104738770627
  0.4012985804611116  0.1580128942918626  0.4012362604160146
  0.4012985804611116  0.1580128942918626  0.9012362604160146
  0.4012985804611116  0.6580128942918624  0.4012362604160146
  0.4012985804611116  0.6580128942918624  0.9012362604160146
  0.9012985804611116  0.1580128942918626  0.4012362604160146
  0.9012985804611116  0.1580128942918626  0.9012362604160146
  0.9012985804611116  0.6580128942918624  0.4012362604160146
  0.9012985804611116  0.6580128942918625  0.9012362604160146
  0.3422518276602229  0.0958366393735096  0.0958463813712654
  0.3422518276602229  0.0958366393735096  0.5958463813712652
  0.3422518276602229  0.5958366393735096  0.0958463813712654
  0.3422518276602229  0.5958366393735096  0.5958463813712652
  0.8422518276602232  0.0958366393735096  0.0958463813712654
  0.8422518276602232  0.0958366393735096  0.5958463813712652
  0.8422518276602232  0.5958366393735096  0.0958463813712654
  0.8422518276602232  0.5958366393735096  0.5958463813712652
  0.0992125012425940  0.0977931781267582  0.3434016049312557
  0.0992125012425940  0.0977931781267582  0.8434016049312556
  0.0992125012425940  0.5977931781267579  0.3434016049312557
  0.0992125012425940  0.5977931781267579  0.8434016049312556
  0.5992125012425938  0.0977931781267582  0.3434016049312557
  0.5992125012425938  0.0977931781267582  0.8434016049312556
  0.5992125012425938  0.5977931781267579  0.3434016049312557
  0.5992125012425938  0.5977931781267579  0.8434016049312556
  0.0992408536018948  0.3434002744271313  0.0977999413430154
  0.0992408536018948  0.3434002744271313  0.5977999413430155
  0.0992408536018948  0.8434002744271308  0.0977999413430153
  0.0992408536018948  0.8434002744271308  0.5977999413430155
  0.5992408536018949  0.3434002744271313  0.0977999413430154
  0.5992408536018949  0.3434002744271313  0.5977999413430155
  0.5992408536018949  0.8434002744271308  0.0977999413430153
  0.5992408536018949  0.8434002744271308  0.5977999413430155
  0.4939364142862432  0.4981952387523808  0.3371935631311670
  0.4939364142862432  0.4981952387523808  0.8371935631311670
  0.4939364142862432 -0.0018047612476192  0.3371935631311670
  0.4939364142862432 -0.0018047612476192  0.8371935631311670
  0.9939364142862430  0.4981952387523808  0.3371935631311670
  0.9939364142862430  0.4981952387523808  0.8371935631311670
  0.9939364142862430 -0.0018047612476192  0.3371935631311670
  0.9939364142862430 -0.0018047612476192  0.8371935631311670
  0.4939614748778544  0.3371860414423705  0.4981955039159835
  0.4939614748778544  0.3371860414423705 -0.0018044960840166
  0.4939614748778544  0.8371860414423704  0.4981955039159835
  0.4939614748778544  0.8371860414423704 -0.0018044960840166
  0.9939614748778539  0.3371860414423705  0.4981955039159835
  0.9939614748778539  0.3371860414423705 -0.0018044960840166
  0.9939614748778539  0.8371860414423704  0.4981955039159835
  0.9939614748778539  0.8371860414423704 -0.0018044960840166
  0.1707076579903145  0.0034309654325711  0.0034370245572639
  0.1707076579903145  0.0034309654325711  0.5034370245572639
  0.1707076579903145  0.5034309654325713  0.0034370245572639
  0.1707076579903145  0.5034309654325713  0.5034370245572639
  0.6707076579903144  0.0034309654325711  0.0034370245572639
  0.6707076579903144  0.0034309654325711  0.5034370245572639
  0.6707076579903144  0.5034309654325713  0.0034370245572639
  0.6707076579903144  0.5034309654325713  0.5034370245572639
  0.0044413011612686  0.0023107935624144  0.1647951489523425
  0.0044413011612686  0.0023107935624144  0.6647951489523432
  0.0044413011612686  0.5023107935624145  0.1647951489523425
  0.0044413011612686  0.5023107935624145  0.6647951489523432
  0.5044413011612684  0.0023107935624144  0.1647951489523425
  0.5044413011612684  0.0023107935624144  0.6647951489523432
  0.5044413011612684  0.5023107935624145  0.1647951489523425
  0.5044413011612684  0.5023107935624145  0.6647951489523432
  0.0044299099995198  0.1647866679388973  0.0023193397838899
  0.0044299099995198  0.1647866679388973  0.5023193397838899
  0.0044299099995198  0.6647866679388973  0.0023193397838899
  0.0044299099995198  0.6647866679388973  0.5023193397838899
  0.5044299099995198  0.1647866679388973  0.0023193397838899
  0.5044299099995198  0.1647866679388973  0.5023193397838899
  0.5044299099995198  0.6647866679388973  0.0023193397838899
  0.5044299099995198  0.6647866679388973  0.5023193397838899
  0.2459514932544004  0.2491276144207926  0.2490810134036200
  0.2459514932544004  0.2491276144207926  0.7490810134036203
  0.2459514932544004  0.7491276144207928  0.2490810134036200
  0.2459514932544004  0.7491276144207928  0.7490810134036203
  0.7459514932544005  0.2491276144207926  0.2490810134036200
  0.7459514932544005  0.2491276144207926  0.7490810134036203
  0.7459514932544005  0.7491276144207928  0.2490810134036200
  0.7459514932544005  0.7491276144207928  0.7490810134036203
  0.3393558655966011  0.4976015458400163  0.4976028966844863
  0.3393558655966011  0.4976015458400163  0.9976028966844864
  0.3393558655966011 -0.0023984541599838  0.4976028966844863
  0.3393558655966011 -0.0023984541599838  0.9976028966844864
  0.8393558655966014  0.4976015458400163  0.4976028966844863
  0.8393558655966014  0.4976015458400163  0.9976028966844864
  0.8393558655966014 -0.0023984541599838  0.4976028966844863
  0.8393558655966014 -0.0023984541599838  0.9976028966844864
  0.3037595063955191  0.3099661789970076  0.3099363693222689
  0.3037595063955191  0.3099661789970076  0.8099363693222689
  0.3037595063955191  0.8099661789970075  0.3099363693222689
  0.3037595063955191  0.8099661789970075  0.8099363693222689
  0.8037595063955193  0.3099661789970076  0.3099363693222689
  0.8037595063955193  0.3099661789970076  0.8099363693222689
  0.8037595063955193  0.8099661789970075  0.3099363693222689
  0.8037595063955193  0.8099661789970075  0.8099363693222689
  0.1924308524746049  0.1866751298393027  0.1867092259453830
  0.1924308524746049  0.1866751298393027  0.6867092259453831
  0.1924308524746049  0.6866751298393029  0.1867092259453830
  0.1924308524746049  0.6866751298393029  0.6867092259453831
  0.6924308524746048  0.1866751298393027  0.1867092259453830
  0.6924308524746048  0.1866751298393027  0.6867092259453831
  0.6924308524746048  0.6866751298393029  0.1867092259453830
  0.6924308524746048  0.6866751298393029  0.6867092259453831
 
  0.00000000E+00  0.00000000E+00  0.00000000E+00
  0.00000000E+00  0.00000000E+00  0.00000000E+00
  0.00000000E+00  0.00000000E+00  0.00000000E+00
  0.00000000E+00  0.00000000E+00  0.00000000E+00
  0.00000000E+00  0.00000000E+00  0.00000000E+00
  0.00000000E+00  0.00000000E+00  0.00000000E+00
  0.00000000E+00  0.00000000E+00  0.00000000E+00
  0.00000000E+00  0.00000000E+00  0.00000000E+00
  0.00000000E+00  0.00000000E+00  0.00000000E+00
  0.00000000E+00  0.00000000E+00  0.00000000E+00
  0.00000000E+00  0.00000000E+00  0.00000000E+00
  0.00000000E+00  0.00000000E+00  0.00000000E+00
  0.00000000E+00  0.00000000E+00  0.00000000E+00
  0.00000000E+00  0.00000000E+00  0.00000000E+00
  0.00000000E+00  0.00000000E+00  0.00000000E+00
  0.00000000E+00  0.00000000E+00  0.00000000E+00
  0.00000000E+00  0.00000000E+00  0.00000000E+00
  0.00000000E+00  0.00000000E+00  0.00000000E+00
  0.00000000E+00  0.00000000E+00  0.00000000E+00
  0.00000000E+00  0.00000000E+00  0.00000000E+00
  0.00000000E+00  0.00000000E+00  0.00000000E+00
  0.00000000E+00  0.00000000E+00  0.00000000E+00
  0.00000000E+00  0.00000000E+00  0.00000000E+00
  0.00000000E+00  0.00000000E+00  0.00000000E+00
  0.00000000E+00  0.00000000E+00  0.00000000E+00
  0.00000000E+00  0.00000000E+00  0.00000000E+00
  0.00000000E+00  0.00000000E+00  0.00000000E+00
  0.00000000E+00  0.00000000E+00  0.00000000E+00
  0.00000000E+00  0.00000000E+00  0.00000000E+00
  0.00000000E+00  0.00000000E+00  0.00000000E+00
  0.00000000E+00  0.00000000E+00  0.00000000E+00
  0.00000000E+00  0.00000000E+00  0.00000000E+00
  0.00000000E+00  0.00000000E+00  0.00000000E+00
  0.00000000E+00  0.00000000E+00  0.00000000E+00
  0.00000000E+00  0.00000000E+00  0.00000000E+00
  0.00000000E+00  0.00000000E+00  0.00000000E+00
  0.00000000E+00  0.00000000E+00  0.00000000E+00
  0.00000000E+00  0.00000000E+00  0.00000000E+00
  0.00000000E+00  0.00000000E+00  0.00000000E+00
  0.00000000E+00  0.00000000E+00  0.00000000E+00
  0.00000000E+00  0.00000000E+00  0.00000000E+00
  0.00000000E+00  0.00000000E+00  0.00000000E+00
  0.00000000E+00  0.00000000E+00  0.00000000E+00
  0.00000000E+00  0.00000000E+00  0.00000000E+00
  0.00000000E+00  0.00000000E+00  0.00000000E+00
  0.00000000E+00  0.00000000E+00  0.00000000E+00
  0.00000000E+00  0.00000000E+00  0.00000000E+00
  0.00000000E+00  0.00000000E+00  0.00000000E+00
  0.00000000E+00  0.00000000E+00  0.00000000E+00
  0.00000000E+00  0.00000000E+00  0.00000000E+00
  0.00000000E+00  0.00000000E+00  0.00000000E+00
  0.00000000E+00  0.00000000E+00  0.00000000E+00
  0.00000000E+00  0.00000000E+00  0.00000000E+00
  0.00000000E+00  0.00000000E+00  0.00000000E+00
  0.00000000E+00  0.00000000E+00  0.00000000E+00
  0.00000000E+00  0.00000000E+00  0.00000000E+00
  0.00000000E+00  0.00000000E+00  0.00000000E+00
  0.00000000E+00  0.00000000E+00  0.00000000E+00
  0.00000000E+00  0.00000000E+00  0.00000000E+00
  0.00000000E+00  0.00000000E+00  0.00000000E+00
  0.00000000E+00  0.00000000E+00  0.00000000E+00
  0.00000000E+00  0.00000000E+00  0.00000000E+00
  0.00000000E+00  0.00000000E+00  0.00000000E+00
  0.00000000E+00  0.00000000E+00  0.00000000E+00
  0.00000000E+00  0.00000000E+00  0.00000000E+00
  0.00000000E+00  0.00000000E+00  0.00000000E+00
  0.00000000E+00  0.00000000E+00  0.00000000E+00
  0.00000000E+00  0.00000000E+00  0.00000000E+00
  0.00000000E+00  0.00000000E+00  0.00000000E+00
  0.00000000E+00  0.00000000E+00  0.00000000E+00
  0.00000000E+00  0.00000000E+00  0.00000000E+00
  0.00000000E+00  0.00000000E+00  0.00000000E+00
  0.00000000E+00  0.00000000E+00  0.00000000E+00
  0.00000000E+00  0.00000000E+00  0.00000000E+00
  0.00000000E+00  0.00000000E+00  0.00000000E+00
  0.00000000E+00  0.00000000E+00  0.00000000E+00
  0.00000000E+00  0.00000000E+00  0.00000000E+00
  0.00000000E+00  0.00000000E+00  0.00000000E+00
  0.00000000E+00  0.00000000E+00  0.00000000E+00
  0.00000000E+00  0.00000000E+00  0.00000000E+00
  0.00000000E+00  0.00000000E+00  0.00000000E+00
  0.00000000E+00  0.00000000E+00  0.00000000E+00
  0.00000000E+00  0.00000000E+00  0.00000000E+00
  0.00000000E+00  0.00000000E+00  0.00000000E+00
  0.00000000E+00  0.00000000E+00  0.00000000E+00
  0.00000000E+00  0.00000000E+00  0.00000000E+00
  0.00000000E+00  0.00000000E+00  0.00000000E+00
  0.00000000E+00  0.00000000E+00  0.00000000E+00
  0.00000000E+00  0.00000000E+00  0.00000000E+00
  0.00000000E+00  0.00000000E+00  0.00000000E+00
  0.00000000E+00  0.00000000E+00  0.00000000E+00
  0.00000000E+00  0.00000000E+00  0.00000000E+00
  0.00000000E+00  0.00000000E+00  0.00000000E+00
  0.00000000E+00  0.00000000E+00  0.00000000E+00
  0.00000000E+00  0.00000000E+00  0.00000000E+00
  0.00000000E+00  0.00000000E+00  0.00000000E+00
  0.00000000E+00  0.00000000E+00  0.00000000E+00
  0.00000000E+00  0.00000000E+00  0.00000000E+00
  0.00000000E+00  0.00000000E+00  0.00000000E+00
  0.00000000E+00  0.00000000E+00  0.00000000E+00
  0.00000000E+00  0.00000000E+00  0.00000000E+00
  0.00000000E+00  0.00000000E+00  0.00000000E+00
  0.00000000E+00  0.00000000E+00  0.00000000E+00
  0.00000000E+00  0.00000000E+00  0.00000000E+00
  0.00000000E+00  0.00000000E+00  0.00000000E+00
  0.00000000E+00  0.00000000E+00  0.00000000E+00
  0.00000000E+00  0.00000000E+00  0.00000000E+00
  0.00000000E+00  0.00000000E+00  0.00000000E+00
  0.00000000E+00  0.00000000E+00  0.00000000E+00
  0.00000000E+00  0.00000000E+00  0.00000000E+00
  0.00000000E+00  0.00000000E+00  0.00000000E+00
  0.00000000E+00  0.00000000E+00  0.00000000E+00
  0.00000000E+00  0.00000000E+00  0.00000000E+00
  0.00000000E+00  0.00000000E+00  0.00000000E+00
  0.00000000E+00  0.00000000E+00  0.00000000E+00
  0.00000000E+00  0.00000000E+00  0.00000000E+00
  0.00000000E+00  0.00000000E+00  0.00000000E+00
  0.00000000E+00  0.00000000E+00  0.00000000E+00
  0.00000000E+00  0.00000000E+00  0.00000000E+00
  0.00000000E+00  0.00000000E+00  0.00000000E+00
