B96 C24                                 
    1.000000000000000     
     9.3079310357692524   -1.6848753708101725    4.9969715683847875
     1.7392153175105827   13.6137570244087147    3.5569635069718131
     2.6517667697191829    0.9738043104261634    6.0769884372767180
   B    C 
    96    24
Direct
  0.2294731747763930  0.4261616712840392  0.4267519981644546
  0.2294731747763930  0.4261616712840391  0.9267519981644549
  0.2294731747763930  0.9261616712840393  0.4267519981644546
  0.2294731747763930  0.9261616712840393  0.9267519981644547
  0.7294731747763931  0.4261616712840392  0.4267519981644546
  0.7294731747763931  0.4261616712840392  0.9267519981644547
  0.7294731747763931  0.9261616712840393  0.4267519981644546
  0.7294731747763931  0.9261616712840393  0.9267519981644547
  0.4039016864601525  0.3603763169112646  0.1276525939682102
  0.4039016864601525  0.3603763169112646  0.6276525939682099
  0.4039016864601525  0.8603763169112647  0.1276525939682101
  0.4039016864601525  0.8603763169112647  0.6276525939682098
  0.9039016864601527  0.3603763169112645  0.1276525939682102
  0.9039016864601527  0.3603763169112645  0.6276525939682099
  0.9039016864601527  0.8603763169112645  0.1276525939682102
  0.9039016864601527  0.8603763169112647  0.6276525939682099
  0.4057998001040478  0.1420365528829265  0.3429485945532155
  0.4057998001040478  0.1420365528829265  0.8429485945532154
  0.4057998001040478  0.6420365528829266  0.3429485945532155
  0.4057998001040478  0.6420365528829267  0.8429485945532154
  0.9057998001040474  0.1420365528829266  0.3429485945532155
  0.9057998001040474  0.1420365528829265  0.8429485945532155
  0.9057998001040474  0.6420365528829267  0.3429485945532155
  0.9057998001040474  0.6420365528829267  0.8429485945532154
  0.2805573392051705  0.0897769506879805  0.1001288809632840
  0.2805573392051705  0.0897769506879805  0.6001288809632837
  0.2805573392051705  0.5897769506879809  0.1001288809632841
  0.2805573392051705  0.5897769506879809  0.6001288809632837
  0.7805573392051701  0.0897769506879805  0.1001288809632841
  0.7805573392051701  0.0897769506879805  0.6001288809632837
  0.7805573392051701  0.5897769506879809  0.1001288809632841
  0.7805573392051701  0.5897769506879809  0.6001288809632837
  0.1363654566233243  0.1127510715865060  0.3589521103901388
  0.1363654566233243  0.1127510715865061  0.8589521103901385
  0.1363654566233244  0.6127510715865061  0.3589521103901388
  0.1363654566233243  0.6127510715865061  0.8589521103901385
  0.6363654566233239  0.1127510715865060  0.3589521103901388
  0.6363654566233239  0.1127510715865060  0.8589521103901385
  0.6363654566233239  0.6127510715865061  0.3589521103901388
  0.6363654566233239  0.6127510715865061  0.8589521103901385
  0.1382588178083992  0.3536838026838907  0.1149828249719700
  0.1382588178083992  0.3536838026838907  0.6149828249719700
  0.1382588178083992  0.8536838026838909  0.1149828249719701
  0.1382588178083992  0.8536838026838908  0.6149828249719700
  0.6382588178083990  0.3536838026838907  0.1149828249719701
  0.6382588178083990  0.3536838026838907  0.6149828249719700
  0.6382588178083990  0.8536838026838909  0.1149828249719700
  0.6382588178083990  0.8536838026838909  0.6149828249719700
  0.5766313263173503  0.4657229915179808  0.3160345681177367
  0.5766313263173503  0.4657229915179808  0.8160345681177369
  0.5766313263173503 -0.0342770084820190  0.3160345681177367
  0.5766313263173503 -0.0342770084820190  0.8160345681177369
  0.0766313263173499  0.4657229915179808  0.3160345681177367
  0.0766313263173499  0.4657229915179809  0.8160345681177369
  0.0766313263173499 -0.0342770084820190  0.3160345681177367
  0.0766313263173499 -0.0342770084820190  0.8160345681177369
  0.5838883171774353  0.3351851805042236  0.4349337050196233
  0.5838883171774353  0.3351851805042236 -0.0650662949803765
  0.5838883171774353  0.8351851805042239  0.4349337050196233
  0.5838883171774353  0.8351851805042236 -0.0650662949803766
  0.0838883171774356  0.3351851805042236  0.4349337050196234
  0.0838883171774356  0.3351851805042236 -0.0650662949803766
  0.0838883171774356  0.8351851805042237  0.4349337050196233
  0.0838883171774356  0.8351851805042237 -0.0650662949803766
  0.1917597559266885  0.0511821032052524  0.0771047212927664
  0.1917597559266885  0.0511821032052524  0.5771047212927666
  0.1917597559266886  0.5511821032052523  0.0771047212927664
  0.1917597559266886  0.5511821032052523  0.5771047212927666
  0.6917597559266889  0.0511821032052524  0.0771047212927663
  0.6917597559266889  0.0511821032052524  0.5771047212927666
  0.6917597559266889  0.5511821032052523  0.0771047212927663
  0.6917597559266889  0.5511821032052523  0.5771047212927666
 -0.0651364197755181  0.0175504796653711  0.1634083767609587
 -0.0651364197755181  0.0175504796653711  0.6634083767609590
 -0.0651364197755181  0.5175504796653708  0.1634083767609587
 -0.0651364197755181  0.5175504796653707  0.6634083767609590
  0.4348635802244818  0.0175504796653710  0.1634083767609587
  0.4348635802244818  0.0175504796653711  0.6634083767609590
  0.4348635802244818  0.5175504796653707  0.1634083767609587
  0.4348635802244818  0.5175504796653707  0.6634083767609590
 -0.0732874065476902  0.1524491763555576  0.0415819978634593
 -0.0732874065476902  0.1524491763555576  0.5415819978634593
 -0.0732874065476902  0.6524491763555574  0.0415819978634593
 -0.0732874065476902  0.6524491763555574  0.5415819978634593
  0.4267125934523097  0.1524491763555576  0.0415819978634593
  0.4267125934523097  0.1524491763555576  0.5415819978634593
  0.4267125934523097  0.6524491763555574  0.0415819978634593
  0.4267125934523097  0.6524491763555574  0.5415819978634593
  0.1298983236686544  0.2876312202926052  0.3039428212274162
  0.1298983236686544  0.2876312202926052  0.8039428212274161
  0.1298983236686544  0.7876312202926051  0.3039428212274162
  0.1298983236686544  0.7876312202926050  0.8039428212274161
  0.6298983236686541  0.2876312202926052  0.3039428212274162
  0.6298983236686541  0.2876312202926052  0.8039428212274161
  0.6298983236686541  0.7876312202926050  0.3039428212274162
  0.6298983236686541  0.7876312202926050  0.8039428212274161
  0.4052473002790793  0.4747616225153037  0.4542041888396022
  0.4052473002790793  0.4747616225153037  0.9542041888396020
  0.4052473002790793  0.9747616225153036  0.4542041888396022
  0.4052473002790793  0.9747616225153035  0.9542041888396020
  0.9052473002790792  0.4747616225153037  0.4542041888396022
  0.9052473002790792  0.4747616225153037  0.9542041888396020
  0.9052473002790792  0.9747616225153036  0.4542041888396022
  0.9052473002790792  0.9747616225153036  0.9542041888396020
  0.2922924706453471  0.3046867179272211  0.2966583505236503
  0.2922924706453471  0.3046867179272210  0.7966583505236509
  0.2922924706453471  0.8046867179272217  0.2966583505236503
  0.2922924706453471  0.8046867179272217  0.7966583505236509
  0.7922924706453474  0.3046867179272211  0.2966583505236503
  0.7922924706453474  0.3046867179272211  0.7966583505236506
  0.7922924706453474  0.8046867179272217  0.2966583505236502
  0.7922924706453474  0.8046867179272217  0.7966583505236507
  0.1143500573311730  0.1760451419798879  0.1907152673435246
  0.1143500573311731  0.1760451419798879  0.6907152673435252
  0.1143500573311730  0.6760451419798881  0.1907152673435246
  0.1143500573311731  0.6760451419798881  0.6907152673435252
  0.6143500573311732  0.1760451419798878  0.1907152673435246
  0.6143500573311732  0.1760451419798879  0.6907152673435251
  0.6143500573311732  0.6760451419798880  0.1907152673435246
  0.6143500573311732  0.6760451419798881  0.6907152673435251
 
  0.00000000E+00  0.00000000E+00  0.00000000E+00
  0.00000000E+00  0.00000000E+00  0.00000000E+00
  0.00000000E+00  0.00000000E+00  0.00000000E+00
  0.00000000E+00  0.00000000E+00  0.00000000E+00
  0.00000000E+00  0.00000000E+00  0.00000000E+00
  0.00000000E+00  0.00000000E+00  0.00000000E+00
  0.00000000E+00  0.00000000E+00  0.00000000E+00
  0.00000000E+00  0.00000000E+00  0.00000000E+00
  0.00000000E+00  0.00000000E+00  0.00000000E+00
  0.00000000E+00  0.00000000E+00  0.00000000E+00
  0.00000000E+00  0.00000000E+00  0.00000000E+00
  0.00000000E+00  0.00000000E+00  0.00000000E+00
  0.00000000E+00  0.00000000E+00  0.00000000E+00
  0.00000000E+00  0.00000000E+00  0.00000000E+00
  0.00000000E+00  0.00000000E+00  0.00000000E+00
  0.00000000E+00  0.00000000E+00  0.00000000E+00
  0.00000000E+00  0.00000000E+00  0.00000000E+00
  0.00000000E+00  0.00000000E+00  0.00000000E+00
  0.00000000E+00  0.00000000E+00  0.00000000E+00
  0.00000000E+00  0.00000000E+00  0.00000000E+00
  0.00000000E+00  0.00000000E+00  0.00000000E+00
  0.00000000E+00  0.00000000E+00  0.00000000E+00
  0.00000000E+00  0.00000000E+00  0.00000000E+00
  0.00000000E+00  0.00000000E+00  0.00000000E+00
  0.00000000E+00  0.00000000E+00  0.00000000E+00
  0.00000000E+00  0.00000000E+00  0.00000000E+00
  0.00000000E+00  0.00000000E+00  0.00000000E+00
  0.00000000E+00  0.00000000E+00  0.00000000E+00
  0.00000000E+00  0.00000000E+00  0.00000000E+00
  0.00000000E+00  0.00000000E+00  0.00000000E+00
  0.00000000E+00  0.00000000E+00  0.00000000E+00
  0.00000000E+00  0.00000000E+00  0.00000000E+00
  0.00000000E+00  0.00000000E+00  0.00000000E+00
  0.00000000E+00  0.00000000E+00  0.00000000E+00
  0.00000000E+00  0.00000000E+00  0.00000000E+00
  0.00000000E+00  0.00000000E+00  0.00000000E+00
  0.00000000E+00  0.00000000E+00  0.00000000E+00
  0.00000000E+00  0.00000000E+00  0.00000000E+00
  0.00000000E+00  0.00000000E+00  0.00000000E+00
  0.00000000E+00  0.00000000E+00  0.00000000E+00
  0.00000000E+00  0.00000000E+00  0.00000000E+00
  0.00000000E+00  0.00000000E+00  0.00000000E+00
  0.00000000E+00  0.00000000E+00  0.00000000E+00
  0.00000000E+00  0.00000000E+00  0.00000000E+00
  0.00000000E+00  0.00000000E+00  0.00000000E+00
  0.00000000E+00  0.00000000E+00  0.00000000E+00
  0.00000000E+00  0.00000000E+00  0.00000000E+00
  0.00000000E+00  0.00000000E+00  0.00000000E+00
  0.00000000E+00  0.00000000E+00  0.00000000E+00
  0.00000000E+00  0.00000000E+00  0.00000000E+00
  0.00000000E+00  0.00000000E+00  0.00000000E+00
  0.00000000E+00  0.00000000E+00  0.00000000E+00
  0.00000000E+00  0.00000000E+00  0.00000000E+00
  0.00000000E+00  0.00000000E+00  0.00000000E+00
  0.00000000E+00  0.00000000E+00  0.00000000E+00
  0.00000000E+00  0.00000000E+00  0.00000000E+00
  0.00000000E+00  0.00000000E+00  0.00000000E+00
  0.00000000E+00  0.00000000E+00  0.00000000E+00
  0.00000000E+00  0.00000000E+00  0.00000000E+00
  0.00000000E+00  0.00000000E+00  0.00000000E+00
  0.00000000E+00  0.00000000E+00  0.00000000E+00
  0.00000000E+00  0.00000000E+00  0.00000000E+00
  0.00000000E+00  0.00000000E+00  0.00000000E+00
  0.00000000E+00  0.00000000E+00  0.00000000E+00
  0.00000000E+00  0.00000000E+00  0.00000000E+00
  0.00000000E+00  0.00000000E+00  0.00000000E+00
  0.00000000E+00  0.00000000E+00  0.00000000E+00
  0.00000000E+00  0.00000000E+00  0.00000000E+00
  0.00000000E+00  0.00000000E+00  0.00000000E+00
  0.00000000E+00  0.00000000E+00  0.00000000E+00
  0.00000000E+00  0.00000000E+00  0.00000000E+00
  0.00000000E+00  0.00000000E+00  0.00000000E+00
  0.00000000E+00  0.00000000E+00  0.00000000E+00
  0.00000000E+00  0.00000000E+00  0.00000000E+00
  0.00000000E+00  0.00000000E+00  0.00000000E+00
  0.00000000E+00  0.00000000E+00  0.00000000E+00
  0.00000000E+00  0.00000000E+00  0.00000000E+00
  0.00000000E+00  0.00000000E+00  0.00000000E+00
  0.00000000E+00  0.00000000E+00  0.00000000E+00
  0.00000000E+00  0.00000000E+00  0.00000000E+00
  0.00000000E+00  0.00000000E+00  0.00000000E+00
  0.00000000E+00  0.00000000E+00  0.00000000E+00
  0.00000000E+00  0.00000000E+00  0.00000000E+00
  0.00000000E+00  0.00000000E+00  0.00000000E+00
  0.00000000E+00  0.00000000E+00  0.00000000E+00
  0.00000000E+00  0.00000000E+00  0.00000000E+00
  0.00000000E+00  0.00000000E+00  0.00000000E+00
  0.00000000E+00  0.00000000E+00  0.00000000E+00
  0.00000000E+00  0.00000000E+00  0.00000000E+00
  0.00000000E+00  0.00000000E+00  0.00000000E+00
  0.00000000E+00  0.00000000E+00  0.00000000E+00
  0.00000000E+00  0.00000000E+00  0.00000000E+00
  0.00000000E+00  0.00000000E+00  0.00000000E+00
  0.00000000E+00  0.00000000E+00  0.00000000E+00
  0.00000000E+00  0.00000000E+00  0.00000000E+00
  0.00000000E+00  0.00000000E+00  0.00000000E+00
  0.00000000E+00  0.00000000E+00  0.00000000E+00
  0.00000000E+00  0.00000000E+00  0.00000000E+00
  0.00000000E+00  0.00000000E+00  0.00000000E+00
  0.00000000E+00  0.00000000E+00  0.00000000E+00
  0.00000000E+00  0.00000000E+00  0.00000000E+00
  0.00000000E+00  0.00000000E+00  0.00000000E+00
  0.00000000E+00  0.00000000E+00  0.00000000E+00
  0.00000000E+00  0.00000000E+00  0.00000000E+00
  0.00000000E+00  0.00000000E+00  0.00000000E+00
  0.00000000E+00  0.00000000E+00  0.00000000E+00
  0.00000000E+00  0.00000000E+00  0.00000000E+00
  0.00000000E+00  0.00000000E+00  0.00000000E+00
  0.00000000E+00  0.00000000E+00  0.00000000E+00
  0.00000000E+00  0.00000000E+00  0.00000000E+00
  0.00000000E+00  0.00000000E+00  0.00000000E+00
  0.00000000E+00  0.00000000E+00  0.00000000E+00
  0.00000000E+00  0.00000000E+00  0.00000000E+00
  0.00000000E+00  0.00000000E+00  0.00000000E+00
  0.00000000E+00  0.00000000E+00  0.00000000E+00
  0.00000000E+00  0.00000000E+00  0.00000000E+00
  0.00000000E+00  0.00000000E+00  0.00000000E+00
  0.00000000E+00  0.00000000E+00  0.00000000E+00
  0.00000000E+00  0.00000000E+00  0.00000000E+00
  0.00000000E+00  0.00000000E+00  0.00000000E+00
