B96 C16                                 
    1.000000000000000     
     9.3734368063207292    0.4742097831446018    4.2535393611256493
     2.7862785784943940    9.3174965659574571    3.4565268555144386
     0.1016570327009885    1.0179565041410281   10.2500487611410840
   B    C 
    96    16
Direct
  0.1602521036630765  0.4003362915925538  0.4003579750706795
  0.1602521036630765  0.4003362915925538  0.9003579750706794
  0.1602521036630765  0.9003362915925540  0.4003579750706795
  0.1602521036630766  0.9003362915925540  0.9003579750706794
  0.6602521036630763  0.4003362915925538  0.4003579750706795
  0.6602521036630763  0.4003362915925538  0.9003579750706794
  0.6602521036630763  0.9003362915925540  0.4003579750706795
  0.6602521036630763  0.9003362915925540  0.9003579750706794
  0.4003304626600239  0.4004108827691662  0.1602720881403321
  0.4003304626600239  0.4004108827691662  0.6602720881403319
  0.4003304626600239  0.9004108827691661  0.1602720881403321
  0.4003304626600239  0.9004108827691661  0.6602720881403319
  0.9003304626600239  0.4004108827691662  0.1602720881403321
  0.9003304626600239  0.4004108827691662  0.6602720881403319
  0.9003304626600239  0.9004108827691661  0.1602720881403321
  0.9003304626600239  0.9004108827691661  0.6602720881403319
  0.4001947973932115  0.1599129887302805  0.4002839832367582
  0.4001947973932115  0.1599129887302805  0.9002839832367584
  0.4001947973932115  0.6599129887302805  0.4002839832367582
  0.4001947973932115  0.6599129887302805  0.9002839832367584
  0.9001947973932114  0.1599129887302805  0.4002839832367582
  0.9001947973932114  0.1599129887302805  0.9002839832367584
  0.9001947973932114  0.6599129887302805  0.4002839832367582
  0.9001947973932114  0.6599129887302805  0.9002839832367584
  0.3397478963369234  0.0996637084074462  0.0996420249293205
  0.3397478963369234  0.0996637084074462  0.5996420249293206
  0.3397478963369234  0.5996637084074460  0.0996420249293205
  0.3397478963369234  0.5996637084074460  0.5996420249293206
  0.8397478963369237  0.0996637084074462  0.0996420249293205
  0.8397478963369237  0.0996637084074462  0.5996420249293206
  0.8397478963369237  0.5996637084074460  0.0996420249293205
  0.8397478963369237  0.5996637084074460  0.5996420249293206
  0.0996695373399760  0.0995891172308338  0.3397279118596679
  0.0996695373399760  0.0995891172308338  0.8397279118596681
  0.0996695373399760  0.5995891172308339  0.3397279118596679
  0.0996695373399760  0.5995891172308339  0.8397279118596681
  0.5996695373399761  0.0995891172308338  0.3397279118596679
  0.5996695373399761  0.0995891172308338  0.8397279118596681
  0.5996695373399761  0.5995891172308339  0.3397279118596679
  0.5996695373399761  0.5995891172308339  0.8397279118596681
  0.0998052026067886  0.3400870112697194  0.0997160167632418
  0.0998052026067886  0.3400870112697194  0.5997160167632416
  0.0998052026067886  0.8400870112697195  0.0997160167632418
  0.0998052026067886  0.8400870112697195  0.5997160167632416
  0.5998052026067886  0.3400870112697194  0.0997160167632417
  0.5998052026067886  0.3400870112697194  0.5997160167632416
  0.5998052026067886  0.8400870112697195  0.0997160167632417
  0.5998052026067886  0.8400870112697195  0.5997160167632416
  0.3321748574963714  0.0001265614573460  0.0002723855260179
  0.3321748574963714  0.0001265614573460  0.5002723855260182
  0.3321748574963714  0.5001265614573458  0.0002723855260179
  0.3321748574963714  0.5001265614573458  0.5002723855260182
  0.8321748574963717  0.0001265614573460  0.0002723855260179
  0.8321748574963717  0.0001265614573460  0.5002723855260182
  0.8321748574963717  0.5001265614573458  0.0002723855260179
  0.8321748574963717  0.5001265614573458  0.5002723855260182
  0.0003386561289674  0.0000927711747278  0.3322182582573360
  0.0003386561289674  0.0000927711747278  0.8322182582573361
  0.0003386561289674  0.5000927711747277  0.3322182582573360
  0.0003386561289674  0.5000927711747277  0.8322182582573361
  0.5003386561289673  0.0000927711747278  0.3322182582573360
  0.5003386561289673  0.0000927711747278  0.8322182582573361
  0.5003386561289673  0.5000927711747277  0.3322182582573360
  0.5003386561289673  0.5000927711747277  0.8322182582573361
  0.0004099598389435  0.3318901356488369  0.0003099363424364
  0.0004099598389435  0.3318901356488369  0.5003099363424365
  0.0004099598389435  0.8318901356488373  0.0003099363424364
  0.0004099598389435  0.8318901356488373  0.5003099363424365
  0.5004099598389433  0.3318901356488369  0.0003099363424364
  0.5004099598389433  0.3318901356488369  0.5003099363424365
  0.5004099598389433  0.8318901356488373  0.0003099363424364
  0.5004099598389433  0.8318901356488373  0.5003099363424365
  0.1678251425036285 -0.0001265614573459 -0.0002723855260178
  0.1678251425036285 -0.0001265614573459  0.4997276144739820
  0.1678251425036285  0.4998734385426540 -0.0002723855260178
  0.1678251425036285  0.4998734385426540  0.4997276144739820
  0.6678251425036283 -0.0001265614573459 -0.0002723855260178
  0.6678251425036283 -0.0001265614573459  0.4997276144739820
  0.6678251425036283  0.4998734385426540 -0.0002723855260178
  0.6678251425036283  0.4998734385426540  0.4997276144739820
 -0.0003386561289675 -0.0000927711747277  0.1677817417426639
 -0.0003386561289675 -0.0000927711747277  0.6677817417426639
 -0.0003386561289675  0.4999072288252722  0.1677817417426639
 -0.0003386561289675  0.4999072288252722  0.6677817417426639
  0.4996613438710327 -0.0000927711747277  0.1677817417426639
  0.4996613438710327 -0.0000927711747277  0.6677817417426639
  0.4996613438710327  0.4999072288252722  0.1677817417426639
  0.4996613438710327  0.4999072288252722  0.6677817417426639
 -0.0004099598389436  0.1681098643511631  0.9996900636575635
 -0.0004099598389436  0.1681098643511631  0.4996900636575637
 -0.0004099598389436  0.6681098643511627  0.9996900636575635
 -0.0004099598389436  0.6681098643511627  0.4996900636575637
  0.4995900401610566  0.1681098643511631  0.9996900636575635
  0.4995900401610566  0.1681098643511631  0.4996900636575637
  0.4995900401610566  0.6681098643511627  0.9996900636575635
  0.4995900401610566  0.6681098643511627  0.4996900636575637
  0.3151600560314496  0.3149640091366461  0.3150625962257431
  0.3151600560314496  0.3149640091366461  0.8150625962257432
  0.3151600560314496  0.8149640091366460  0.3150625962257431
  0.3151600560314496  0.8149640091366460  0.8150625962257432
  0.8151600560314496  0.3149640091366461  0.3150625962257431
  0.8151600560314496  0.3149640091366461  0.8150625962257432
  0.8151600560314496  0.8149640091366460  0.3150625962257431
  0.8151600560314496  0.8149640091366460  0.8150625962257432
  0.1848399439685505  0.1850359908633540  0.1849374037742567
  0.1848399439685505  0.1850359908633540  0.6849374037742568
  0.1848399439685505  0.6850359908633540  0.1849374037742567
  0.1848399439685505  0.6850359908633540  0.6849374037742568
  0.6848399439685504  0.1850359908633540  0.1849374037742567
  0.6848399439685504  0.1850359908633540  0.6849374037742568
  0.6848399439685504  0.6850359908633540  0.1849374037742567
  0.6848399439685504  0.6850359908633540  0.6849374037742568
 
  0.00000000E+00  0.00000000E+00  0.00000000E+00
  0.00000000E+00  0.00000000E+00  0.00000000E+00
  0.00000000E+00  0.00000000E+00  0.00000000E+00
  0.00000000E+00  0.00000000E+00  0.00000000E+00
  0.00000000E+00  0.00000000E+00  0.00000000E+00
  0.00000000E+00  0.00000000E+00  0.00000000E+00
  0.00000000E+00  0.00000000E+00  0.00000000E+00
  0.00000000E+00  0.00000000E+00  0.00000000E+00
  0.00000000E+00  0.00000000E+00  0.00000000E+00
  0.00000000E+00  0.00000000E+00  0.00000000E+00
  0.00000000E+00  0.00000000E+00  0.00000000E+00
  0.00000000E+00  0.00000000E+00  0.00000000E+00
  0.00000000E+00  0.00000000E+00  0.00000000E+00
  0.00000000E+00  0.00000000E+00  0.00000000E+00
  0.00000000E+00  0.00000000E+00  0.00000000E+00
  0.00000000E+00  0.00000000E+00  0.00000000E+00
  0.00000000E+00  0.00000000E+00  0.00000000E+00
  0.00000000E+00  0.00000000E+00  0.00000000E+00
  0.00000000E+00  0.00000000E+00  0.00000000E+00
  0.00000000E+00  0.00000000E+00  0.00000000E+00
  0.00000000E+00  0.00000000E+00  0.00000000E+00
  0.00000000E+00  0.00000000E+00  0.00000000E+00
  0.00000000E+00  0.00000000E+00  0.00000000E+00
  0.00000000E+00  0.00000000E+00  0.00000000E+00
  0.00000000E+00  0.00000000E+00  0.00000000E+00
  0.00000000E+00  0.00000000E+00  0.00000000E+00
  0.00000000E+00  0.00000000E+00  0.00000000E+00
  0.00000000E+00  0.00000000E+00  0.00000000E+00
  0.00000000E+00  0.00000000E+00  0.00000000E+00
  0.00000000E+00  0.00000000E+00  0.00000000E+00
  0.00000000E+00  0.00000000E+00  0.00000000E+00
  0.00000000E+00  0.00000000E+00  0.00000000E+00
  0.00000000E+00  0.00000000E+00  0.00000000E+00
  0.00000000E+00  0.00000000E+00  0.00000000E+00
  0.00000000E+00  0.00000000E+00  0.00000000E+00
  0.00000000E+00  0.00000000E+00  0.00000000E+00
  0.00000000E+00  0.00000000E+00  0.00000000E+00
  0.00000000E+00  0.00000000E+00  0.00000000E+00
  0.00000000E+00  0.00000000E+00  0.00000000E+00
  0.00000000E+00  0.00000000E+00  0.00000000E+00
  0.00000000E+00  0.00000000E+00  0.00000000E+00
  0.00000000E+00  0.00000000E+00  0.00000000E+00
  0.00000000E+00  0.00000000E+00  0.00000000E+00
  0.00000000E+00  0.00000000E+00  0.00000000E+00
  0.00000000E+00  0.00000000E+00  0.00000000E+00
  0.00000000E+00  0.00000000E+00  0.00000000E+00
  0.00000000E+00  0.00000000E+00  0.00000000E+00
  0.00000000E+00  0.00000000E+00  0.00000000E+00
  0.00000000E+00  0.00000000E+00  0.00000000E+00
  0.00000000E+00  0.00000000E+00  0.00000000E+00
  0.00000000E+00  0.00000000E+00  0.00000000E+00
  0.00000000E+00  0.00000000E+00  0.00000000E+00
  0.00000000E+00  0.00000000E+00  0.00000000E+00
  0.00000000E+00  0.00000000E+00  0.00000000E+00
  0.00000000E+00  0.00000000E+00  0.00000000E+00
  0.00000000E+00  0.00000000E+00  0.00000000E+00
  0.00000000E+00  0.00000000E+00  0.00000000E+00
  0.00000000E+00  0.00000000E+00  0.00000000E+00
  0.00000000E+00  0.00000000E+00  0.00000000E+00
  0.00000000E+00  0.00000000E+00  0.00000000E+00
  0.00000000E+00  0.00000000E+00  0.00000000E+00
  0.00000000E+00  0.00000000E+00  0.00000000E+00
  0.00000000E+00  0.00000000E+00  0.00000000E+00
  0.00000000E+00  0.00000000E+00  0.00000000E+00
  0.00000000E+00  0.00000000E+00  0.00000000E+00
  0.00000000E+00  0.00000000E+00  0.00000000E+00
  0.00000000E+00  0.00000000E+00  0.00000000E+00
  0.00000000E+00  0.00000000E+00  0.00000000E+00
  0.00000000E+00  0.00000000E+00  0.00000000E+00
  0.00000000E+00  0.00000000E+00  0.00000000E+00
  0.00000000E+00  0.00000000E+00  0.00000000E+00
  0.00000000E+00  0.00000000E+00  0.00000000E+00
  0.00000000E+00  0.00000000E+00  0.00000000E+00
  0.00000000E+00  0.00000000E+00  0.00000000E+00
  0.00000000E+00  0.00000000E+00  0.00000000E+00
  0.00000000E+00  0.00000000E+00  0.00000000E+00
  0.00000000E+00  0.00000000E+00  0.00000000E+00
  0.00000000E+00  0.00000000E+00  0.00000000E+00
  0.00000000E+00  0.00000000E+00  0.00000000E+00
  0.00000000E+00  0.00000000E+00  0.00000000E+00
  0.00000000E+00  0.00000000E+00  0.00000000E+00
  0.00000000E+00  0.00000000E+00  0.00000000E+00
  0.00000000E+00  0.00000000E+00  0.00000000E+00
  0.00000000E+00  0.00000000E+00  0.00000000E+00
  0.00000000E+00  0.00000000E+00  0.00000000E+00
  0.00000000E+00  0.00000000E+00  0.00000000E+00
  0.00000000E+00  0.00000000E+00  0.00000000E+00
  0.00000000E+00  0.00000000E+00  0.00000000E+00
  0.00000000E+00  0.00000000E+00  0.00000000E+00
  0.00000000E+00  0.00000000E+00  0.00000000E+00
  0.00000000E+00  0.00000000E+00  0.00000000E+00
  0.00000000E+00  0.00000000E+00  0.00000000E+00
  0.00000000E+00  0.00000000E+00  0.00000000E+00
  0.00000000E+00  0.00000000E+00  0.00000000E+00
  0.00000000E+00  0.00000000E+00  0.00000000E+00
  0.00000000E+00  0.00000000E+00  0.00000000E+00
  0.00000000E+00  0.00000000E+00  0.00000000E+00
  0.00000000E+00  0.00000000E+00  0.00000000E+00
  0.00000000E+00  0.00000000E+00  0.00000000E+00
  0.00000000E+00  0.00000000E+00  0.00000000E+00
  0.00000000E+00  0.00000000E+00  0.00000000E+00
  0.00000000E+00  0.00000000E+00  0.00000000E+00
  0.00000000E+00  0.00000000E+00  0.00000000E+00
  0.00000000E+00  0.00000000E+00  0.00000000E+00
  0.00000000E+00  0.00000000E+00  0.00000000E+00
  0.00000000E+00  0.00000000E+00  0.00000000E+00
  0.00000000E+00  0.00000000E+00  0.00000000E+00
  0.00000000E+00  0.00000000E+00  0.00000000E+00
  0.00000000E+00  0.00000000E+00  0.00000000E+00
  0.00000000E+00  0.00000000E+00  0.00000000E+00
  0.00000000E+00  0.00000000E+00  0.00000000E+00
  0.00000000E+00  0.00000000E+00  0.00000000E+00
