B96 C16                                 
    1.000000000000000     
     9.4249639999999992    0.0725710000000000    4.3069759999999997
     2.7959790000000000    9.0009859999999993    4.3069769999999998
     0.0977430000000000    0.0725710000000000   10.3619710000000005
   B    C 
    96    16
Direct
  0.1721459899027733  0.3775863911604581  0.3975196600066972
  0.1460807399780502  0.4065155504712398  0.8886820902868169
  0.1619092985061289  0.8958737127030895  0.3940502847836932
  0.1657873117541002  0.8760850213513607  0.9291874688164089
  0.6494706226843266  0.3923972526027545  0.3754350112400732
  0.6487852048326731  0.4279471419794738  0.8920484973612429
  0.6577340355502834  0.9003062478094509  0.3822596400881593
  0.6500579019820040  0.9015468007530557  0.8834140746962864
  0.3865787271953923  0.3798656443760238  0.1505594153236363
  0.3835022713701275  0.3879988856304488  0.6513164962010581
  0.4149572582934362  0.8942751437182950  0.1814480222028882
  0.4088005208435982  0.9003853961520718  0.6565768216392930
  0.8918620779834240  0.3938398607107618  0.1496813015927589
  0.9052346632939157  0.3633618619880729  0.6732650462634343
  0.9218985489397710  0.8924077464907156  0.1648307260760460
  0.8649940858826878  0.9177971325986212  0.6653007622413805
  0.4004121473461061  0.1465998171984191  0.3831485811556472
  0.3882537978450060  0.1697660685099782  0.9101392568976375
  0.4006171101409950  0.6405880222127615  0.4153378356676612
  0.3959162037849088  0.6603480277519755  0.8823709258819211
  0.8970778263658681  0.1655634997357598  0.4070458469740576
  0.9286279880913032  0.1381890340342449  0.9093477973446251
  0.9331471431815304  0.6370548098645165  0.4051994885620571
  0.8950099807609408  0.6567618040664324  0.9096088516262437
  0.3544354372047921  0.0727776618383512  0.0985273246507414
  0.3345489027697717  0.0817739879893492  0.5968557287494606
  0.3388382901512615  0.6286722006140276  0.0797071434367612
  0.3273501838107380  0.5956632961258778  0.6133677969514071
  0.8455398002785356  0.1415367189916607  0.1634180438776607
  0.8306175836190783  0.1163230822101722  0.6418621583673783
  0.8227139053334781  0.5786741237019107  0.1129403058577675
  0.8495640641146630  0.6021244799188776  0.5826591306004412
  0.1056832780086962  0.1175209416903795  0.3386309319054088
  0.1393150091549201  0.0983190501739890  0.8549157260339431
  0.1179684284367929  0.5922273507542777  0.3330329014989679
  0.0934023274113698  0.6192042296858546  0.8464391821431363
  0.5775781391199488  0.1113132582669812  0.3108594990405208
  0.6014801408846122  0.0899696375304702  0.8183132950339723
  0.5986624003302708  0.5997599031930289  0.3345333770067894
  0.6092690702492514  0.6162643235243033  0.8416340434079524
  0.0813716646358325  0.3207818021173050  0.1159951165042187
  0.1038462300324382  0.3230565648333440  0.6207830547331523
  0.0952900455143869  0.8598842921095926  0.1070523743343694
  0.1010288853605708  0.8353486116347455  0.6290606818272136
  0.5949040868257585  0.3581629161532711  0.0915766835883672
  0.5710301410348241  0.3342858226886404  0.6017843955358170
  0.6308076370495346  0.8317480353598312  0.1029041179646083
  0.6140769098022468  0.8447844325293876  0.5833285999680908
  0.3547019365941170  0.9815458207841121  0.0160079062896369
  0.3415828079554621  0.9811921602609913  0.4931251345472015
  0.3063037812206822  0.4882887629991481  0.0198502335609800
  0.3255811327654083  0.4990425782269306  0.5155043753302655
  0.7190212805509876  0.1925172403484329  0.9750405679884763
  0.8135075958464852  0.0223838442253781  0.5078762728854931
  0.7987038997795336  0.5259180977734080  0.0188746433679915
  0.8461004737837198  0.4918078771959216  0.4921656640097671
  0.9776292797081808  0.9905827438700896  0.3677187950946774
  0.0318187898818930  0.0013793147693373  0.8329991795587235
  0.0132532547551536  0.4771554318982815  0.3392139472808406
  0.9913994800411812  0.5356939791581314  0.8044113517045094
  0.5053629249970955  0.0052646714293764  0.3035520994011955
  0.5007805945905889  0.0010180688929698  0.8204437765450334
  0.4507679342602547  0.5113395002196852  0.3419592516214405
  0.4911053751450093  0.4736830827205777  0.8399439976444979
  0.9668558382682392  0.3596171917104433  0.9916292605214597
  0.0190130551304836  0.3296590575578622  0.5047210369253421
  0.9970011697560863  0.8099899378312653  0.0236956524861608
  0.0151323304337374  0.8076070462686060  0.5191153017907658
  0.5068427340255740  0.3321015857999470  0.9972934690148590
  0.4979546656030646  0.3297054604055299  0.4868595976855979
  0.5121002890181593  0.8368731110279359  0.0274365440124875
  0.5230431430832475  0.8170459357759908  0.4948735056710256
  0.1801659764284606  0.0027165127039779  0.0077426151843917
  0.1662538432321525  0.9976120627303393  0.4972807347961022
  0.1533907622699699  0.4949296036752026  0.0084544881577752
  0.2089383565973723  0.4617064358777453  0.4766708437919893
  0.7021268303530396  0.9826152583903295  0.9706520293076415
  0.6562907715401491  0.0256109758548787  0.4957294690142209
  0.6402100563292150  0.5225475286864021  0.0116628690270168
  0.6570980411111494  0.4858223223453043  0.4921630028342437
  0.0001976006773507  0.9769474775502575  0.2147551708031987
  0.0143910174295317  0.0055379969572894  0.6870549378351195
  0.9820163735668247  0.4810818146618743  0.1833821143916488
  0.0396412985495846  0.4884290782779803  0.6544353588645019
  0.5344390491196384  0.0007178794689777  0.1378550234770314
  0.4862589652579994  0.0230976107747279  0.6575308658039185
  0.4976263219531316  0.5249117472209032  0.1537070916970580
  0.4862586995049311  0.4874663322658058  0.6727456212458737
  0.0009382423791718  0.1950214867556652  0.9843600460329256
  0.0424917412200430  0.1619580491767135  0.5086297934887087
  0.9876556670194793  0.6484132831791035  0.0221044366511125
  0.0501437546334181  0.6492897901586218  0.4853025919525066
  0.5169468209977366  0.1870134582891952  0.9625769622451555
  0.4929197878304988  0.1696076096441964  0.4853265996866238
  0.4937304158380529  0.6902670560645038  0.9815798048167126
  0.5100500820000181  0.6595171906169215  0.5021168714300429
  0.3023741885369003  0.2898662988661603  0.3015029479541544
  0.2868086986440428  0.3070803242146998  0.8082167361911268
  0.3290478425046977  0.8179918624144042  0.3302483929055123
  0.2916327962409365  0.8138115344125743  0.7605916253736502
  0.8067102329735111  0.2998145949454400  0.3131224487252023
  0.8006893822050486  0.3021892527400061  0.8425933135463817
  0.8175504856105518  0.8139469293369317  0.3129115482635784
  0.8139285322425259  0.8291843132340058  0.8175198642170762
  0.1946292659943066  0.1718229700587492  0.1873481064414815
  0.2028558701355152  0.1669787963474908  0.6992479192420522
  0.1782859791168306  0.7020108990310004  0.1627328031244106
  0.2202341934255266  0.7278437666807684  0.7101729005089521
  0.6891799431708092  0.1813531923851763  0.1605430947120625
  0.6784063440748093  0.2045565937209590  0.6954175749954181
  0.6828824425178840  0.6754839964146483  0.1813821295307081
  0.6922470924094118  0.6803232795534185  0.6569647608144692
 
 -0.12893890E-01  0.10002716E-01  0.54588345E-02
 -0.29300966E-02 -0.52104382E-02  0.47820549E-02
  0.16149228E-01 -0.53295058E-02 -0.48547573E-02
 -0.30832394E-01 -0.10499914E-01  0.11545191E-01
  0.17147163E-01  0.93297684E-03 -0.39194571E-02
 -0.29165356E-02  0.18565588E-01 -0.20549102E-01
 -0.17701754E-01  0.15787193E-01 -0.14031852E-01
  0.11167174E-01  0.91863243E-02  0.92376535E-03
 -0.84946853E-02  0.12715469E-02  0.21353217E-01
 -0.18432993E-03  0.11814738E-01  0.15928519E-02
  0.29498323E-01 -0.14862921E-01 -0.12625638E-01
 -0.23632952E-02  0.93272942E-02 -0.15880395E-01
 -0.14657646E-01  0.41464950E-02  0.19376596E-01
 -0.24551684E-02  0.24572735E-02 -0.58074766E-03
 -0.67463252E-02 -0.78089707E-02 -0.18893078E-01
 -0.45920054E-02  0.17223131E-01  0.35948265E-01
  0.45132469E-02 -0.32653187E-02  0.35480263E-03
  0.19676847E-01 -0.12514961E-01  0.19510800E-01
 -0.94570017E-03 -0.13483977E-01  0.26825612E-01
  0.60379630E-02 -0.12294153E-02  0.22080810E-02
 -0.10667908E-02  0.44435266E-02 -0.16792340E-01
  0.11245837E-01  0.16699577E-01  0.34676551E-02
  0.12601899E-01  0.78779873E-02  0.16791278E-01
  0.41104623E-02  0.28385970E-01  0.59303724E-02
 -0.23847165E-01 -0.12666524E-01 -0.46544059E-03
  0.46141016E-02  0.99238061E-03  0.83672244E-02
  0.64574453E-02 -0.25710378E-01 -0.10909338E-02
 -0.92602108E-02 -0.88000578E-02  0.29816240E-02
  0.19766095E-01  0.53914546E-02 -0.12261575E-01
 -0.31215740E-02  0.16282548E-01 -0.70176389E-02
 -0.87846958E-02  0.10939569E-01  0.20171056E-01
 -0.29213626E-01 -0.22282879E-02 -0.13183583E-01
  0.13427799E-01  0.87654440E-02 -0.36920849E-01
 -0.27732664E-01 -0.60536953E-02 -0.17430519E-01
  0.24618642E-01  0.23807468E-01 -0.14020207E-01
  0.79385106E-02 -0.20346815E-01 -0.22502976E-01
  0.15693332E-01  0.19186420E-01 -0.18185481E-01
  0.90953306E-02  0.98384240E-02 -0.19146204E-02
  0.20996715E-02  0.33811619E-02  0.54212756E-03
 -0.10806776E-01  0.11127041E-01 -0.83878935E-02
  0.10434350E-01 -0.76077923E-02 -0.95099173E-02
 -0.42751360E-03 -0.67330322E-02  0.21958051E-02
  0.11344054E-01 -0.65879863E-02 -0.19196607E-01
 -0.19147488E-02  0.39741898E-02 -0.71668652E-02
  0.19076820E-01  0.16015865E-01  0.15825279E-01
  0.11091249E-02  0.26861634E-02  0.26515053E-01
 -0.19939777E-01 -0.94513868E-02 -0.29634251E-02
 -0.11265600E-01 -0.58022116E-02 -0.12946383E-01
 -0.31122662E-02  0.13807555E-01 -0.15525568E-01
 -0.13304111E-01 -0.82526575E-02 -0.21682241E-02
 -0.50832234E-03 -0.39714871E-02 -0.35689495E-02
  0.16718999E-01 -0.41777479E-02  0.19201463E-01
  0.86889289E-02  0.30929656E-01 -0.99540677E-02
  0.45610139E-02  0.50031609E-02  0.25129345E-02
 -0.14862454E-02 -0.35474137E-02  0.15824378E-01
  0.21010320E-02  0.15052806E-02  0.31856981E-02
  0.27650912E-01 -0.88557762E-02 -0.20572080E-02
 -0.11310677E-02  0.10858152E-01 -0.10412230E-01
 -0.20078978E-01  0.40991053E-02  0.16784406E-02
 -0.41895294E-02  0.27088477E-02 -0.50280809E-02
 -0.27735462E-01  0.11921328E-01  0.79690233E-02
  0.26874958E-02 -0.13837293E-01 -0.56505554E-02
  0.69792370E-02 -0.95519075E-02 -0.40954095E-02
  0.47363703E-02 -0.14964113E-01 -0.65767511E-02
  0.23666860E-02 -0.11256686E-01 -0.81623920E-02
  0.70878465E-02 -0.82962036E-02 -0.87524124E-03
 -0.85517597E-02 -0.37381893E-02 -0.14470728E-03
  0.14835888E-02  0.92732824E-02  0.50142759E-02
  0.19676915E-01  0.14380631E-01  0.85456074E-02
 -0.38915636E-02 -0.68762661E-03  0.15310045E-01
 -0.88299257E-02  0.14110060E-01 -0.21057417E-01
 -0.87857630E-02 -0.10869284E-01 -0.12590391E-01
 -0.17236477E-01 -0.39712741E-01 -0.21712954E-01
  0.21561547E-01 -0.55720479E-02  0.23545609E-01
 -0.49120844E-02 -0.13466043E-01  0.12826556E-01
  0.79852375E-02 -0.71423586E-02  0.13544041E-01
 -0.19225728E-01 -0.19332355E-01  0.20586164E-01
  0.29622636E-01 -0.12292567E-01  0.12066907E-01
 -0.18601477E-01 -0.94772799E-05  0.86411266E-02
 -0.40866851E-02  0.24723924E-01 -0.13505273E-01
 -0.11768002E-01 -0.10367726E-01  0.69533765E-02
  0.31573109E-01  0.29550269E-02  0.90265855E-02
 -0.88916461E-04  0.88890875E-03 -0.90057044E-03
 -0.14177007E-01 -0.70333616E-02  0.15280880E-01
 -0.58224131E-02 -0.10790236E-01 -0.24762903E-02
  0.19009879E-01 -0.24327037E-02 -0.29220591E-01
  0.12872302E-01 -0.73129526E-02  0.20631198E-01
  0.78191509E-02  0.10803857E-03  0.36381704E-02
 -0.23737503E-01  0.22356706E-01  0.13753353E-01
  0.15970389E-01  0.84546322E-03 -0.44631466E-02
 -0.79554686E-02 -0.19887074E-02  0.48901708E-02
  0.86350128E-02 -0.88871277E-03  0.14073312E-01
  0.19159826E-01  0.19791232E-01  0.17258859E-01
 -0.12918185E-01 -0.47257761E-02  0.20462905E-01
 -0.12702949E-02 -0.16899368E-01 -0.20365174E-02
 -0.14946220E-01  0.27669347E-01 -0.47472884E-02
  0.73262433E-02 -0.26084496E-02  0.54392092E-02
  0.13088155E-01 -0.51767999E-02  0.24640202E-01
 -0.10689126E-01 -0.74836163E-02  0.10232930E-01
 -0.19777356E-02 -0.14860632E-01 -0.86620992E-02
  0.15187805E-02 -0.70035876E-02  0.12119233E-01
 -0.27220302E-01  0.32952136E-02  0.17416845E-01
 -0.10720064E-02 -0.12265539E-01  0.11771800E-01
 -0.28750728E-03 -0.44532526E-02 -0.34614916E-01
  0.17605965E-02 -0.12050603E-01 -0.41840787E-02
  0.57469150E-02  0.10519786E-01 -0.74415146E-02
 -0.11260769E-01 -0.11313115E-01 -0.29316145E-02
  0.54115103E-02 -0.46879445E-03 -0.28172265E-01
  0.57349297E-02  0.91050839E-02 -0.26313685E-01
 -0.15801251E-01 -0.40933209E-02 -0.12375572E-01
 -0.14417345E-01  0.51824819E-02  0.44058985E-02
  0.31423430E-02 -0.58153067E-03 -0.53147137E-02
 
            1
   0.5000000000000000     
  0.53856276E+00  0.13387079E-02  0.00000000E+00  0.00000000E+00
  0.17129200E+00  0.37814581E+00  0.39790550E+00
  0.14600794E+00  0.40622362E+00  0.88906444E+00
  0.16286015E+00  0.89557407E+00  0.39354535E+00
  0.16430985E+00  0.87550227E+00  0.93060089E+00
  0.65037173E+00  0.39244652E+00  0.37485086E+00
  0.64833333E+00  0.42899208E+00  0.89081043E+00
  0.65653631E+00  0.90119731E+00  0.38171002E+00
  0.65050282E+00  0.90205635E+00  0.88306192E+00
  0.38609637E+00  0.37993046E+00  0.15176333E+00
  0.38329820E+00  0.38865774E+00  0.65120432E+00
  0.41677959E+00  0.89344305E+00  0.18042719E+00
  0.40852775E+00  0.90091275E+00  0.65570472E+00
  0.89100455E+00  0.39406746E+00  0.15087812E+00
  0.90506363E+00  0.36349986E+00  0.67325076E+00
  0.92167391E+00  0.89198094E+00  0.16418984E+00
  0.86445287E+00  0.91874561E+00  0.66686611E+00
  0.40070632E+00  0.14641629E+00  0.38311971E+00
  0.38950115E+00  0.16905502E+00  0.91085780E+00
  0.40077720E+00  0.63982525E+00  0.41688277E+00
  0.39625764E+00  0.66027703E+00  0.88236506E+00
  0.89695461E+00  0.16581830E+00  0.40618086E+00
  0.92895299E+00  0.13911692E+00  0.90899436E+00
  0.93368388E+00  0.63748481E+00  0.40560790E+00
  0.89476181E+00  0.65834279E+00  0.90934102E+00
  0.35337084E+00  0.72076891E-01  0.99238644E-01
  0.33477557E+00  0.81824962E-01  0.59714407E+00
  0.33960458E+00  0.62723600E+00  0.79932952E-01
  0.32699916E+00  0.59517331E+00  0.61386124E+00
  0.84651082E+00  0.14183741E+00  0.16229779E+00
  0.83018693E+00  0.11723539E+00  0.64132334E+00
  0.82205809E+00  0.57927908E+00  0.11393476E+00
  0.84804703E+00  0.60201260E+00  0.58270004E+00
  0.10627041E+00  0.11802113E+00  0.33639743E+00
  0.13794133E+00  0.97994938E-01  0.85478034E+00
  0.11889724E+00  0.59355537E+00  0.33141832E+00
  0.94168059E-01  0.61807534E+00  0.84550429E+00
  0.57810809E+00  0.11238723E+00  0.30931531E+00
  0.60180493E+00  0.90517206E-01  0.81785831E+00
  0.59871881E+00  0.59994788E+00  0.33445796E+00
  0.60851340E+00  0.61689135E+00  0.84128277E+00
  0.82056750E-01  0.32035825E+00  0.11542753E+00
  0.10393291E+00  0.32268002E+00  0.62100949E+00
  0.96010719E-01  0.85952119E+00  0.10597745E+00
  0.10086438E+00  0.83557369E+00  0.62868968E+00
  0.59565331E+00  0.35904586E+00  0.91661893E-01
  0.57103500E+00  0.33442517E+00  0.60300390E+00
  0.62989980E+00  0.83122670E+00  0.10335516E+00
  0.61357596E+00  0.84446846E+00  0.58304345E+00
  0.35431564E+00  0.98232329E+00  0.15096153E-01
  0.34100906E+00  0.98073575E+00  0.49344870E+00
  0.30634313E+00  0.48806861E+00  0.19753170E-01
  0.32653417E+00  0.49879773E+00  0.51613655E+00
  0.71898188E+00  0.19424522E+00  0.97385839E+00
  0.81366798E+00  0.22660963E-01  0.50781568E+00
  0.79867659E+00  0.52571433E+00  0.19734272E-01
  0.84618667E+00  0.49189012E+00  0.49224937E+00
  0.97925050E+00  0.99008230E+00  0.36715368E+00
  0.31584549E-01  0.19896792E-02  0.83234042E+00
  0.12114128E-01  0.47738863E+00  0.33967149E+00
  0.99113351E+00  0.53584818E+00  0.80421519E+00
  0.50368466E+00  0.59339443E-02  0.30435602E+00
  0.50115294E+00  0.24727561E-03  0.82033673E+00
  0.45129843E+00  0.51080620E+00  0.34176280E+00
  0.49160586E+00  0.47284924E+00  0.83976521E+00
  0.96716975E+00  0.35899149E+00  0.99136499E+00
  0.19527517E-01  0.32919457E+00  0.50465803E+00
  0.99660621E+00  0.80978351E+00  0.23938637E-01
  0.15057572E-01  0.80812230E+00  0.51917416E+00
  0.50765360E+00  0.33289594E+00  0.99703861E+00
  0.49775235E+00  0.32966211E+00  0.48770047E+00
  0.51140613E+00  0.83767105E+00  0.26377316E-01
  0.52275740E+00  0.81644639E+00  0.49463395E+00
  0.17990557E+00  0.51278000E-03  0.77191184E-02
  0.16748641E+00  0.99728648E+00  0.49803990E+00
  0.15334437E+00  0.49417427E+00  0.94066506E-02
  0.20947619E+00  0.46130052E+00  0.47726956E+00
  0.70140987E+00  0.98153310E+00  0.97239319E+00
  0.65806802E+00  0.24912722E-01  0.49586325E+00
  0.63921439E+00  0.52254833E+00  0.12493351E-01
  0.65648008E+00  0.48720853E+00  0.49119200E+00
  0.99973693E+00  0.97636908E+00  0.21552259E+00
  0.16023647E-01  0.56914578E-02  0.68674811E+00
  0.98199741E+00  0.48113180E+00  0.18332576E+00
  0.38994217E-01  0.48803416E+00  0.65560582E+00
  0.53430619E+00  0.11806685E-03  0.13804007E+00
  0.48732444E+00  0.22968391E-01  0.65573172E+00
  0.49842494E+00  0.52449232E+00  0.15454500E+00
  0.48667270E+00  0.48746898E+00  0.67274800E+00
  0.99930003E+00  0.19626994E+00  0.98518570E+00
  0.43331709E-01  0.16200294E+00  0.50804664E+00
  0.98726190E+00  0.64830239E+00  0.22550167E-01
  0.50613566E-01  0.64923254E+00  0.48581019E+00
  0.51763805E+00  0.18810654E+00  0.96266811E+00
  0.49230004E+00  0.16933915E+00  0.48668319E+00
  0.49394037E+00  0.68932495E+00  0.98178586E+00
  0.50880105E+00  0.66106713E+00  0.50176273E+00
  0.30280571E+00  0.28971675E+00  0.30164821E+00
  0.28758227E+00  0.30677851E+00  0.80920962E+00
  0.32859619E+00  0.81757289E+00  0.33110404E+00
  0.29177417E+00  0.81298597E+00  0.76045803E+00
  0.80690133E+00  0.29941861E+00  0.31379241E+00
  0.79917629E+00  0.30237327E+00  0.84398617E+00
  0.81768972E+00  0.81325804E+00  0.31370804E+00
  0.81399962E+00  0.82894928E+00  0.81591772E+00
  0.19492231E+00  0.17115156E+00  0.18730348E+00
  0.20299299E+00  0.16756739E+00  0.69858720E+00
  0.17787170E+00  0.70138345E+00  0.16302434E+00
  0.22054155E+00  0.72782718E+00  0.70869263E+00
  0.68934694E+00  0.18187016E+00  0.15898908E+00
  0.67763517E+00  0.20433692E+00  0.69523226E+00
  0.68202657E+00  0.67577517E+00  0.18182944E+00
  0.69242634E+00  0.68029209E+00  0.65664676E+00
 -0.85433427E-03  0.54761040E-03  0.39371330E-03
 -0.58077482E-04 -0.29825330E-03  0.37111059E-03
  0.95207884E-03 -0.30532904E-03 -0.52563590E-03
 -0.14910291E-02 -0.60646919E-03  0.14699723E-02
  0.91047382E-03  0.38227047E-04 -0.61038899E-03
 -0.46632838E-03  0.10748547E-02 -0.12559097E-02
 -0.12080710E-02  0.88670752E-03 -0.55125819E-03
  0.41784256E-03  0.52404911E-03 -0.36663972E-03
 -0.48896892E-03  0.58830971E-04  0.11872534E-02
 -0.20615864E-03  0.67700049E-03 -0.15922412E-03
  0.18038460E-02 -0.84056530E-03 -0.99808119E-03
 -0.27296405E-03  0.54503192E-03 -0.85258143E-03
 -0.83796206E-03  0.24146640E-03  0.11497321E-02
 -0.16491425E-03  0.11209173E-03 -0.15760627E-04
 -0.16808933E-03 -0.41515444E-03 -0.68711292E-03
 -0.58942937E-03  0.95942917E-03  0.15798074E-02
  0.32580615E-03 -0.18676073E-03 -0.45480896E-04
  0.12403311E-02 -0.69821929E-03  0.74649233E-03
  0.18012868E-03 -0.83665433E-03  0.15574148E-02
  0.35127777E-03 -0.78504736E-04 -0.98784881E-05
 -0.13606181E-03  0.26063016E-03 -0.87093689E-03
  0.33710055E-03  0.90293151E-03 -0.34371985E-03
  0.56941238E-03  0.39126305E-03  0.43871573E-03
 -0.24033370E-03  0.15396591E-02 -0.24323607E-03
 -0.10365810E-02 -0.78209679E-03  0.68827702E-03
  0.21883540E-03  0.25782473E-04  0.30788659E-03
  0.78542197E-03 -0.14202565E-02  0.21943338E-03
 -0.36185729E-03 -0.50864009E-03  0.49046254E-03
  0.94868079E-03  0.31305713E-03 -0.10981755E-02
 -0.47962925E-03  0.93419119E-03 -0.49712903E-03
 -0.69859841E-03  0.56794791E-03  0.97886456E-03
 -0.15206085E-02 -0.87399843E-04  0.18746965E-04
  0.61608567E-03  0.53291130E-03 -0.22832789E-02
 -0.13456916E-02 -0.31848692E-03 -0.15153937E-03
  0.91916895E-03  0.13342271E-02 -0.15858172E-02
  0.75366401E-03 -0.11185701E-02 -0.93249338E-03
  0.48089604E-03  0.10888799E-02 -0.15532715E-02
  0.33953077E-03  0.51889077E-03 -0.47236824E-03
  0.72486461E-04  0.20672220E-03 -0.95933825E-04
 -0.75419645E-03  0.61687297E-03 -0.29990300E-03
  0.66521699E-03 -0.44101860E-03 -0.53452563E-03
  0.68587654E-04 -0.37393275E-03  0.23959453E-03
  0.69285953E-03 -0.35231108E-03 -0.10768398E-02
 -0.15730746E-03  0.21056850E-03 -0.35153536E-03
  0.76285762E-03  0.90605347E-03  0.66622918E-04
 -0.36427947E-04  0.14564224E-03  0.12202305E-02
 -0.88484971E-03 -0.55517828E-03  0.46729216E-03
 -0.49301059E-03 -0.31771831E-03 -0.28899696E-03
 -0.36115270E-03  0.77911754E-03 -0.88342156E-03
 -0.58223622E-03 -0.46127690E-03  0.33342034E-03
  0.52779686E-05 -0.23924841E-03 -0.67483526E-04
  0.96308014E-03 -0.25686416E-03  0.66502332E-03
 -0.24919457E-04  0.17449339E-02 -0.12077037E-02
  0.15625080E-03  0.28424464E-03 -0.74226847E-04
 -0.35035915E-04 -0.15549353E-03  0.91837908E-03
  0.95931076E-04  0.99738303E-04  0.69764154E-04
  0.16037839E-02 -0.50470816E-03 -0.57376879E-03
 -0.23585736E-03  0.62636265E-03 -0.67541491E-03
 -0.11245664E-02  0.21490207E-03  0.46535065E-03
 -0.27843634E-03  0.17348582E-03 -0.22796304E-03
 -0.16822231E-02  0.69235984E-03  0.77639359E-03
  0.39682826E-03 -0.78094283E-03 -0.12688762E-03
  0.48589619E-03 -0.51406036E-03 -0.16434192E-03
  0.51128330E-03 -0.86752052E-03 -0.16430574E-03
  0.28549939E-03 -0.62110916E-03 -0.24551280E-03
  0.53838411E-03 -0.44767865E-03 -0.75150143E-04
 -0.40201061E-03 -0.22439215E-03  0.24467891E-03
 -0.75307047E-04  0.49036751E-03  0.58578726E-04
  0.81860834E-03  0.77655118E-03 -0.24429599E-03
 -0.18140797E-03 -0.41534046E-04  0.83713948E-03
 -0.68963423E-03  0.83505155E-03 -0.10243583E-02
 -0.25831712E-03 -0.61642408E-03 -0.24391252E-03
 -0.27020816E-03 -0.21816747E-02 -0.47217317E-04
  0.12158003E-02 -0.31081285E-03  0.75325412E-03
 -0.30020212E-04 -0.74760987E-03  0.95034622E-03
  0.57608833E-03 -0.44069785E-03  0.57980604E-03
 -0.69049020E-03 -0.11101380E-02  0.17376279E-02
  0.17808471E-02 -0.68061132E-03  0.13595489E-03
 -0.10367090E-02  0.67549262E-05  0.85927418E-03
 -0.64060679E-03  0.13888245E-02 -0.97600169E-03
 -0.45427505E-03 -0.60129812E-03  0.81948130E-03
  0.16468364E-02  0.14338222E-03 -0.25869377E-03
 -0.37639610E-04  0.48235040E-04 -0.52782869E-04
 -0.62758433E-03 -0.40617402E-03  0.11785447E-02
 -0.11987170E-03 -0.60543878E-03  0.17646268E-03
  0.10492145E-02 -0.97337234E-04 -0.17986809E-02
  0.84355481E-03 -0.41716004E-03  0.80434093E-03
  0.40281996E-03  0.36831375E-06  0.11284337E-04
 -0.16389694E-02  0.12762679E-02  0.80646072E-03
  0.87342265E-03  0.43741844E-04 -0.58384897E-03
 -0.40260590E-03 -0.12072029E-03  0.44775543E-03
  0.49684586E-03 -0.51685525E-04  0.49240609E-03
  0.68377494E-03  0.11376349E-02  0.71207565E-04
 -0.61514718E-03 -0.27162212E-03  0.13617173E-02
  0.21168384E-03 -0.94117224E-03  0.18659939E-03
 -0.12472156E-02  0.15727175E-02 -0.35527901E-03
  0.41180653E-03 -0.15217708E-03  0.15183928E-03
  0.74819503E-03 -0.29182316E-03  0.98657600E-03
 -0.42895266E-03 -0.39466598E-03  0.84101046E-03
  0.14166753E-03 -0.77596046E-03 -0.18018096E-03
  0.19164806E-03 -0.40946738E-03  0.68818129E-03
 -0.15358519E-02  0.18518790E-03  0.14254203E-02
  0.11613932E-03 -0.69055630E-03  0.80865690E-03
  0.80329114E-04 -0.19780855E-03 -0.16336551E-02
  0.28182769E-03 -0.68723380E-03 -0.16661977E-04
  0.14161682E-03  0.56407232E-03 -0.63222707E-03
 -0.43468185E-03 -0.58574002E-03  0.25326817E-03
  0.31787270E-03 -0.24932771E-05 -0.14937527E-02
  0.16749748E-03  0.49627007E-03 -0.15475379E-02
 -0.75361910E-03 -0.22390202E-03 -0.17388617E-03
 -0.85479699E-03  0.29481043E-03  0.42434858E-03
  0.18484122E-03 -0.44491562E-04 -0.35501873E-03
  0.00000000E+00  0.00000000E+00  0.00000000E+00
  0.00000000E+00  0.00000000E+00  0.00000000E+00
  0.00000000E+00  0.00000000E+00  0.00000000E+00
  0.00000000E+00  0.00000000E+00  0.00000000E+00
  0.00000000E+00  0.00000000E+00  0.00000000E+00
  0.00000000E+00  0.00000000E+00  0.00000000E+00
  0.00000000E+00  0.00000000E+00  0.00000000E+00
  0.00000000E+00  0.00000000E+00  0.00000000E+00
  0.00000000E+00  0.00000000E+00  0.00000000E+00
  0.00000000E+00  0.00000000E+00  0.00000000E+00
  0.00000000E+00  0.00000000E+00  0.00000000E+00
  0.00000000E+00  0.00000000E+00  0.00000000E+00
  0.00000000E+00  0.00000000E+00  0.00000000E+00
  0.00000000E+00  0.00000000E+00  0.00000000E+00
  0.00000000E+00  0.00000000E+00  0.00000000E+00
  0.00000000E+00  0.00000000E+00  0.00000000E+00
  0.00000000E+00  0.00000000E+00  0.00000000E+00
  0.00000000E+00  0.00000000E+00  0.00000000E+00
  0.00000000E+00  0.00000000E+00  0.00000000E+00
  0.00000000E+00  0.00000000E+00  0.00000000E+00
  0.00000000E+00  0.00000000E+00  0.00000000E+00
  0.00000000E+00  0.00000000E+00  0.00000000E+00
  0.00000000E+00  0.00000000E+00  0.00000000E+00
  0.00000000E+00  0.00000000E+00  0.00000000E+00
  0.00000000E+00  0.00000000E+00  0.00000000E+00
  0.00000000E+00  0.00000000E+00  0.00000000E+00
  0.00000000E+00  0.00000000E+00  0.00000000E+00
  0.00000000E+00  0.00000000E+00  0.00000000E+00
  0.00000000E+00  0.00000000E+00  0.00000000E+00
  0.00000000E+00  0.00000000E+00  0.00000000E+00
  0.00000000E+00  0.00000000E+00  0.00000000E+00
  0.00000000E+00  0.00000000E+00  0.00000000E+00
  0.00000000E+00  0.00000000E+00  0.00000000E+00
  0.00000000E+00  0.00000000E+00  0.00000000E+00
  0.00000000E+00  0.00000000E+00  0.00000000E+00
  0.00000000E+00  0.00000000E+00  0.00000000E+00
  0.00000000E+00  0.00000000E+00  0.00000000E+00
  0.00000000E+00  0.00000000E+00  0.00000000E+00
  0.00000000E+00  0.00000000E+00  0.00000000E+00
  0.00000000E+00  0.00000000E+00  0.00000000E+00
  0.00000000E+00  0.00000000E+00  0.00000000E+00
  0.00000000E+00  0.00000000E+00  0.00000000E+00
  0.00000000E+00  0.00000000E+00  0.00000000E+00
  0.00000000E+00  0.00000000E+00  0.00000000E+00
  0.00000000E+00  0.00000000E+00  0.00000000E+00
  0.00000000E+00  0.00000000E+00  0.00000000E+00
  0.00000000E+00  0.00000000E+00  0.00000000E+00
  0.00000000E+00  0.00000000E+00  0.00000000E+00
  0.00000000E+00  0.00000000E+00  0.00000000E+00
  0.00000000E+00  0.00000000E+00  0.00000000E+00
  0.00000000E+00  0.00000000E+00  0.00000000E+00
  0.00000000E+00  0.00000000E+00  0.00000000E+00
  0.00000000E+00  0.00000000E+00  0.00000000E+00
  0.00000000E+00  0.00000000E+00  0.00000000E+00
  0.00000000E+00  0.00000000E+00  0.00000000E+00
  0.00000000E+00  0.00000000E+00  0.00000000E+00
  0.00000000E+00  0.00000000E+00  0.00000000E+00
  0.00000000E+00  0.00000000E+00  0.00000000E+00
  0.00000000E+00  0.00000000E+00  0.00000000E+00
  0.00000000E+00  0.00000000E+00  0.00000000E+00
  0.00000000E+00  0.00000000E+00  0.00000000E+00
  0.00000000E+00  0.00000000E+00  0.00000000E+00
  0.00000000E+00  0.00000000E+00  0.00000000E+00
  0.00000000E+00  0.00000000E+00  0.00000000E+00
  0.00000000E+00  0.00000000E+00  0.00000000E+00
  0.00000000E+00  0.00000000E+00  0.00000000E+00
  0.00000000E+00  0.00000000E+00  0.00000000E+00
  0.00000000E+00  0.00000000E+00  0.00000000E+00
  0.00000000E+00  0.00000000E+00  0.00000000E+00
  0.00000000E+00  0.00000000E+00  0.00000000E+00
  0.00000000E+00  0.00000000E+00  0.00000000E+00
  0.00000000E+00  0.00000000E+00  0.00000000E+00
  0.00000000E+00  0.00000000E+00  0.00000000E+00
  0.00000000E+00  0.00000000E+00  0.00000000E+00
  0.00000000E+00  0.00000000E+00  0.00000000E+00
  0.00000000E+00  0.00000000E+00  0.00000000E+00
  0.00000000E+00  0.00000000E+00  0.00000000E+00
  0.00000000E+00  0.00000000E+00  0.00000000E+00
  0.00000000E+00  0.00000000E+00  0.00000000E+00
  0.00000000E+00  0.00000000E+00  0.00000000E+00
  0.00000000E+00  0.00000000E+00  0.00000000E+00
  0.00000000E+00  0.00000000E+00  0.00000000E+00
  0.00000000E+00  0.00000000E+00  0.00000000E+00
  0.00000000E+00  0.00000000E+00  0.00000000E+00
  0.00000000E+00  0.00000000E+00  0.00000000E+00
  0.00000000E+00  0.00000000E+00  0.00000000E+00
  0.00000000E+00  0.00000000E+00  0.00000000E+00
  0.00000000E+00  0.00000000E+00  0.00000000E+00
  0.00000000E+00  0.00000000E+00  0.00000000E+00
  0.00000000E+00  0.00000000E+00  0.00000000E+00
  0.00000000E+00  0.00000000E+00  0.00000000E+00
  0.00000000E+00  0.00000000E+00  0.00000000E+00
  0.00000000E+00  0.00000000E+00  0.00000000E+00
  0.00000000E+00  0.00000000E+00  0.00000000E+00
  0.00000000E+00  0.00000000E+00  0.00000000E+00
  0.00000000E+00  0.00000000E+00  0.00000000E+00
  0.00000000E+00  0.00000000E+00  0.00000000E+00
  0.00000000E+00  0.00000000E+00  0.00000000E+00
  0.00000000E+00  0.00000000E+00  0.00000000E+00
  0.00000000E+00  0.00000000E+00  0.00000000E+00
  0.00000000E+00  0.00000000E+00  0.00000000E+00
  0.00000000E+00  0.00000000E+00  0.00000000E+00
  0.00000000E+00  0.00000000E+00  0.00000000E+00
  0.00000000E+00  0.00000000E+00  0.00000000E+00
  0.00000000E+00  0.00000000E+00  0.00000000E+00
  0.00000000E+00  0.00000000E+00  0.00000000E+00
  0.00000000E+00  0.00000000E+00  0.00000000E+00
  0.00000000E+00  0.00000000E+00  0.00000000E+00
  0.00000000E+00  0.00000000E+00  0.00000000E+00
  0.00000000E+00  0.00000000E+00  0.00000000E+00
  0.00000000E+00  0.00000000E+00  0.00000000E+00
  0.00000000E+00  0.00000000E+00  0.00000000E+00
