B96 C16
1.0
9.424964 0.072571 4.306976
2.795979 9.000986 4.306977
0.097743 0.072571 10.361971
B C
96 16
direct
0.160395 0.400515 0.400515 B
0.160395 0.400515 0.900515 B
0.160395 0.900515 0.400515 B
0.160395 0.900515 0.900515 B
0.660395 0.400515 0.400515 B
0.660395 0.400515 0.900515 B
0.660395 0.900515 0.400515 B
0.660395 0.900515 0.900515 B
0.400515 0.400515 0.160395 B
0.400515 0.400515 0.660395 B
0.400515 0.900515 0.160395 B
0.400515 0.900515 0.660395 B
0.900515 0.400515 0.160395 B
0.900515 0.400515 0.660395 B
0.900515 0.900515 0.160395 B
0.900515 0.900515 0.660395 B
0.400515 0.160395 0.400515 B
0.400515 0.160395 0.900515 B
0.400515 0.660395 0.400515 B
0.400515 0.660395 0.900515 B
0.900515 0.160395 0.400515 B
0.900515 0.160395 0.900515 B
0.900515 0.660395 0.400515 B
0.900515 0.660395 0.900515 B
0.339605 0.099485 0.099485 B
0.339605 0.099485 0.599485 B
0.339605 0.599485 0.099485 B
0.339605 0.599485 0.599485 B
0.839605 0.099485 0.099485 B
0.839605 0.099485 0.599485 B
0.839605 0.599485 0.099485 B
0.839605 0.599485 0.599485 B
0.099485 0.099485 0.339605 B
0.099485 0.099485 0.839605 B
0.099485 0.599485 0.339605 B
0.099485 0.599485 0.839605 B
0.599485 0.099485 0.339605 B
0.599485 0.099485 0.839605 B
0.599485 0.599485 0.339605 B
0.599485 0.599485 0.839605 B
0.099485 0.339605 0.099485 B
0.099485 0.339605 0.599485 B
0.099485 0.839605 0.099485 B
0.099485 0.839605 0.599485 B
0.599485 0.339605 0.099485 B
0.599485 0.339605 0.599485 B
0.599485 0.839605 0.099485 B
0.599485 0.839605 0.599485 B
0.332293 0.000115 0.000115 B
0.332293 0.000115 0.500115 B
0.332293 0.500115 0.000115 B
0.332293 0.500115 0.500115 B
0.832293 0.000115 0.000115 B
0.832293 0.000115 0.500115 B
0.832293 0.500115 0.000115 B
0.832293 0.500115 0.500115 B
0.000115 0.000115 0.332293 B
0.000115 0.000115 0.832293 B
0.000115 0.500115 0.332293 B
0.000115 0.500115 0.832293 B
0.500115 0.000115 0.332293 B
0.500115 0.000115 0.832293 B
0.500115 0.500115 0.332293 B
0.500115 0.500115 0.832293 B
0.000115 0.332293 0.000115 B
0.000115 0.332293 0.500115 B
0.000115 0.832293 0.000115 B
0.000115 0.832293 0.500115 B
0.500115 0.332293 0.000115 B
0.500115 0.332293 0.500115 B
0.500115 0.832293 0.000115 B
0.500115 0.832293 0.500115 B
0.167707 0.999885 0.999885 B
0.167707 0.999885 0.499885 B
0.167707 0.499885 0.999885 B
0.167707 0.499885 0.499885 B
0.667707 0.999885 0.999885 B
0.667707 0.999885 0.499885 B
0.667707 0.499885 0.999885 B
0.667707 0.499885 0.499885 B
0.999885 0.999885 0.167707 B
0.999885 0.999885 0.667707 B
0.999885 0.499885 0.167707 B
0.999885 0.499885 0.667707 B
0.499885 0.999885 0.167707 B
0.499885 0.999885 0.667707 B
0.499885 0.499885 0.167707 B
0.499885 0.499885 0.667707 B
0.999885 0.167707 0.999885 B
0.999885 0.167707 0.499885 B
0.999885 0.667707 0.999885 B
0.999885 0.667707 0.499885 B
0.499885 0.167707 0.999885 B
0.499885 0.167707 0.499885 B
0.499885 0.667707 0.999885 B
0.499885 0.667707 0.499885 B
0.315397 0.315397 0.315397 C
0.315397 0.315397 0.815397 C
0.315397 0.815397 0.315397 C
0.315397 0.815397 0.815397 C
0.815397 0.315397 0.315397 C
0.815397 0.315397 0.815397 C
0.815397 0.815397 0.315397 C
0.815397 0.815397 0.815397 C
0.184603 0.184603 0.184603 C
0.184603 0.184603 0.684603 C
0.184603 0.684603 0.184603 C
0.184603 0.684603 0.684603 C
0.684603 0.184603 0.184603 C
0.684603 0.184603 0.684603 C
0.684603 0.684603 0.184603 C
0.684603 0.684603 0.684603 C
