B96 C24                                 
    1.000000000000000     
     9.2170043017536507    0.0476481290728217    4.1775558117699818
     2.6493046047699549    9.1102637068894303    4.3126788946034225
    -0.0727316920985673    0.1030925475873848   10.4210833746663010
   B    C 
    96    24
Direct
  0.1576626056911739  0.4043507538703170  0.4043507538701303
  0.1576626056911739  0.4043507538703170  0.9043507538701300
  0.1576626056911739  0.9043507538703172  0.4043507538701303
  0.1576626056911739  0.9043507538703172  0.9043507538701300
  0.6576626056911739  0.4043507538703170  0.4043507538701303
  0.6576626056911739  0.4043507538703170  0.9043507538701300
  0.6576626056911739  0.9043507538703172  0.4043507538701303
  0.6576626056911739  0.9043507538703172  0.9043507538701300
  0.4013665733431663  0.4013405143256224  0.1579403354984221
  0.4013665733431663  0.4013405143256224  0.6579403354984220
  0.4013665733431663  0.9013405143256227  0.1579403354984221
  0.4013665733431663  0.9013405143256227  0.6579403354984220
  0.9013665733431666  0.4013405143256224  0.1579403354984221
  0.9013665733431666  0.4013405143256224  0.6579403354984220
  0.9013665733431666  0.9013405143256227  0.1579403354984221
  0.9013665733431666  0.9013405143256227  0.6579403354984220
  0.4013665733432171  0.1579403354983464  0.4013405143257426
  0.4013665733432171  0.1579403354983464  0.9013405143257426
  0.4013665733432171  0.6579403354983463  0.4013405143257426
  0.4013665733432171  0.6579403354983463  0.9013405143257426
  0.9013665733432170  0.1579403354983464  0.4013405143257426
  0.9013665733432170  0.1579403354983464  0.9013405143257426
  0.9013665733432170  0.6579403354983463  0.4013405143257426
  0.9013665733432170  0.6579403354983463  0.9013405143257426
  0.3421660838776100  0.0959209544903650  0.0959209544907688
  0.3421660838776100  0.0959209544903650  0.5959209544907688
  0.3421660838776100  0.5959209544903650  0.0959209544907688
  0.3421660838776100  0.5959209544903650  0.5959209544907688
  0.8421660838776099  0.0959209544903650  0.0959209544907688
  0.8421660838776099  0.0959209544903650  0.5959209544907688
  0.8421660838776099  0.5959209544903650  0.0959209544907688
  0.8421660838776099  0.5959209544903650  0.5959209544907688
  0.0991629670342127  0.0976846951848589  0.3434330969005680
  0.0991629670342127  0.0976846951848589  0.8434330969005679
  0.0991629670342127  0.5976846951848590  0.3434330969005680
  0.0991629670342127  0.5976846951848590  0.8434330969005679
  0.5991629670342128  0.0976846951848589  0.3434330969005680
  0.5991629670342128  0.0976846951848589  0.8434330969005679
  0.5991629670342128  0.5976846951848590  0.3434330969005680
  0.5991629670342128  0.5976846951848590  0.8434330969005679
  0.0991629670342020  0.3434330969006242  0.0976846951847841
  0.0991629670342020  0.3434330969006242  0.5976846951847841
  0.0991629670342020  0.8434330969006243  0.0976846951847841
  0.0991629670342020  0.8434330969006243  0.5976846951847841
  0.5991629670342020  0.3434330969006242  0.0976846951847841
  0.5991629670342020  0.3434330969006242  0.5976846951847841
  0.5991629670342020  0.8434330969006243  0.0976846951847841
  0.5991629670342020  0.8434330969006243  0.5976846951847841
  0.4941055038380026  0.4981858179768308  0.3372478826721843
  0.4941055038380026  0.4981858179768308  0.8372478826721843
  0.4941055038380026  0.9981858179768308  0.3372478826721843
  0.4941055038380026  0.9981858179768308  0.8372478826721843
  0.9941055038380027  0.4981858179768308  0.3372478826721843
  0.9941055038380027  0.4981858179768308  0.8372478826721843
  0.9941055038380027  0.9981858179768308  0.3372478826721843
  0.9941055038380027  0.9981858179768308  0.8372478826721843
  0.4941055038380039  0.3372478826723479  0.4981858179767169
  0.4941055038380039  0.3372478826723479  0.9981858179767165
  0.4941055038380039  0.8372478826723474  0.4981858179767169
  0.4941055038380039  0.8372478826723474  0.9981858179767165
  0.9941055038380040  0.3372478826723479  0.4981858179767169
  0.9941055038380040  0.3372478826723479  0.9981858179767165
  0.9941055038380040  0.8372478826723474  0.4981858179767169
  0.9941055038380040  0.8372478826723474  0.9981858179767165
  0.1705708750671508  0.0033337171348755  0.0033337171348222
  0.1705708750671508  0.0033337171348755  0.5033337171348220
  0.1705708750671508  0.5033337171348754  0.0033337171348222
  0.1705708750671508  0.5033337171348754  0.5033337171348220
  0.6705708750671509  0.0033337171348755  0.0033337171348222
  0.6705708750671509  0.0033337171348755  0.5033337171348220
  0.6705708750671509  0.5033337171348754  0.0033337171348222
  0.6705708750671509  0.5033337171348754  0.5033337171348220
  0.0041993185746480  0.0023139421707285  0.1647180445232347
  0.0041993185746480  0.0023139421707285  0.6647180445232349
  0.0041993185746480  0.5023139421707284  0.1647180445232347
  0.0041993185746480  0.5023139421707284  0.6647180445232349
  0.5041993185746479  0.0023139421707285  0.1647180445232347
  0.5041993185746479  0.0023139421707285  0.6647180445232349
  0.5041993185746479  0.5023139421707284  0.1647180445232347
  0.5041993185746479  0.5023139421707284  0.6647180445232349
  0.0041993185746480  0.1647180445232355  0.0023139421706549
  0.0041993185746480  0.1647180445232355  0.5023139421706549
  0.0041993185746480  0.6647180445232357  0.0023139421706549
  0.0041993185746480  0.6647180445232357  0.5023139421706549
  0.5041993185746481  0.1647180445232355  0.0023139421706549
  0.5041993185746481  0.1647180445232355  0.5023139421706549
  0.5041993185746481  0.6647180445232357  0.0023139421706549
  0.5041993185746481  0.6647180445232357  0.5023139421706549
  0.2462900618417611  0.2490458377832979  0.2490458377834610
  0.2462900618417611  0.2490458377832979  0.7490458377834609
  0.2462900618417611  0.7490458377832980  0.2490458377834610
  0.2462900618417611  0.7490458377832980  0.7490458377834609
  0.7462900618417613  0.2490458377832979  0.2490458377834610
  0.7462900618417613  0.2490458377832979  0.7490458377834609
  0.7462900618417613  0.7490458377832980  0.2490458377834610
  0.7462900618417613  0.7490458377832980  0.7490458377834609
  0.3393382087810221  0.4977243369435674  0.4977243369435942
  0.3393382087810221  0.4977243369435674  0.9977243369435939
  0.3393382087810221  0.9977243369435670  0.4977243369435942
  0.3393382087810221  0.9977243369435670  0.9977243369435939
  0.8393382087810221  0.4977243369435674  0.4977243369435942
  0.8393382087810221  0.4977243369435674  0.9977243369435939
  0.8393382087810221  0.9977243369435670  0.4977243369435942
  0.8393382087810221  0.9977243369435670  0.9977243369435939
  0.3038246242636135  0.3097205553812173  0.3097205553810077
  0.3038246242636135  0.3097205553812173  0.8097205553810075
  0.3038246242636135  0.8097205553812170  0.3097205553810077
  0.3038246242636135  0.8097205553812170  0.8097205553810075
  0.8038246242636137  0.3097205553812173  0.3097205553810077
  0.8038246242636137  0.3097205553812173  0.8097205553810075
  0.8038246242636137  0.8097205553812170  0.3097205553810077
  0.8038246242636137  0.8097205553812170  0.8097205553810075
  0.1924788148975750  0.1870405151437770  0.1870405151439201
  0.1924788148975750  0.1870405151437770  0.6870405151439201
  0.1924788148975750  0.6870405151437771  0.1870405151439201
  0.1924788148975750  0.6870405151437771  0.6870405151439201
  0.6924788148975752  0.1870405151437770  0.1870405151439201
  0.6924788148975752  0.1870405151437770  0.6870405151439201
  0.6924788148975752  0.6870405151437771  0.1870405151439201
  0.6924788148975752  0.6870405151437771  0.6870405151439201
 
  0.00000000E+00  0.00000000E+00  0.00000000E+00
  0.00000000E+00  0.00000000E+00  0.00000000E+00
  0.00000000E+00  0.00000000E+00  0.00000000E+00
  0.00000000E+00  0.00000000E+00  0.00000000E+00
  0.00000000E+00  0.00000000E+00  0.00000000E+00
  0.00000000E+00  0.00000000E+00  0.00000000E+00
  0.00000000E+00  0.00000000E+00  0.00000000E+00
  0.00000000E+00  0.00000000E+00  0.00000000E+00
  0.00000000E+00  0.00000000E+00  0.00000000E+00
  0.00000000E+00  0.00000000E+00  0.00000000E+00
  0.00000000E+00  0.00000000E+00  0.00000000E+00
  0.00000000E+00  0.00000000E+00  0.00000000E+00
  0.00000000E+00  0.00000000E+00  0.00000000E+00
  0.00000000E+00  0.00000000E+00  0.00000000E+00
  0.00000000E+00  0.00000000E+00  0.00000000E+00
  0.00000000E+00  0.00000000E+00  0.00000000E+00
  0.00000000E+00  0.00000000E+00  0.00000000E+00
  0.00000000E+00  0.00000000E+00  0.00000000E+00
  0.00000000E+00  0.00000000E+00  0.00000000E+00
  0.00000000E+00  0.00000000E+00  0.00000000E+00
  0.00000000E+00  0.00000000E+00  0.00000000E+00
  0.00000000E+00  0.00000000E+00  0.00000000E+00
  0.00000000E+00  0.00000000E+00  0.00000000E+00
  0.00000000E+00  0.00000000E+00  0.00000000E+00
  0.00000000E+00  0.00000000E+00  0.00000000E+00
  0.00000000E+00  0.00000000E+00  0.00000000E+00
  0.00000000E+00  0.00000000E+00  0.00000000E+00
  0.00000000E+00  0.00000000E+00  0.00000000E+00
  0.00000000E+00  0.00000000E+00  0.00000000E+00
  0.00000000E+00  0.00000000E+00  0.00000000E+00
  0.00000000E+00  0.00000000E+00  0.00000000E+00
  0.00000000E+00  0.00000000E+00  0.00000000E+00
  0.00000000E+00  0.00000000E+00  0.00000000E+00
  0.00000000E+00  0.00000000E+00  0.00000000E+00
  0.00000000E+00  0.00000000E+00  0.00000000E+00
  0.00000000E+00  0.00000000E+00  0.00000000E+00
  0.00000000E+00  0.00000000E+00  0.00000000E+00
  0.00000000E+00  0.00000000E+00  0.00000000E+00
  0.00000000E+00  0.00000000E+00  0.00000000E+00
  0.00000000E+00  0.00000000E+00  0.00000000E+00
  0.00000000E+00  0.00000000E+00  0.00000000E+00
  0.00000000E+00  0.00000000E+00  0.00000000E+00
  0.00000000E+00  0.00000000E+00  0.00000000E+00
  0.00000000E+00  0.00000000E+00  0.00000000E+00
  0.00000000E+00  0.00000000E+00  0.00000000E+00
  0.00000000E+00  0.00000000E+00  0.00000000E+00
  0.00000000E+00  0.00000000E+00  0.00000000E+00
  0.00000000E+00  0.00000000E+00  0.00000000E+00
  0.00000000E+00  0.00000000E+00  0.00000000E+00
  0.00000000E+00  0.00000000E+00  0.00000000E+00
  0.00000000E+00  0.00000000E+00  0.00000000E+00
  0.00000000E+00  0.00000000E+00  0.00000000E+00
  0.00000000E+00  0.00000000E+00  0.00000000E+00
  0.00000000E+00  0.00000000E+00  0.00000000E+00
  0.00000000E+00  0.00000000E+00  0.00000000E+00
  0.00000000E+00  0.00000000E+00  0.00000000E+00
  0.00000000E+00  0.00000000E+00  0.00000000E+00
  0.00000000E+00  0.00000000E+00  0.00000000E+00
  0.00000000E+00  0.00000000E+00  0.00000000E+00
  0.00000000E+00  0.00000000E+00  0.00000000E+00
  0.00000000E+00  0.00000000E+00  0.00000000E+00
  0.00000000E+00  0.00000000E+00  0.00000000E+00
  0.00000000E+00  0.00000000E+00  0.00000000E+00
  0.00000000E+00  0.00000000E+00  0.00000000E+00
  0.00000000E+00  0.00000000E+00  0.00000000E+00
  0.00000000E+00  0.00000000E+00  0.00000000E+00
  0.00000000E+00  0.00000000E+00  0.00000000E+00
  0.00000000E+00  0.00000000E+00  0.00000000E+00
  0.00000000E+00  0.00000000E+00  0.00000000E+00
  0.00000000E+00  0.00000000E+00  0.00000000E+00
  0.00000000E+00  0.00000000E+00  0.00000000E+00
  0.00000000E+00  0.00000000E+00  0.00000000E+00
  0.00000000E+00  0.00000000E+00  0.00000000E+00
  0.00000000E+00  0.00000000E+00  0.00000000E+00
  0.00000000E+00  0.00000000E+00  0.00000000E+00
  0.00000000E+00  0.00000000E+00  0.00000000E+00
  0.00000000E+00  0.00000000E+00  0.00000000E+00
  0.00000000E+00  0.00000000E+00  0.00000000E+00
  0.00000000E+00  0.00000000E+00  0.00000000E+00
  0.00000000E+00  0.00000000E+00  0.00000000E+00
  0.00000000E+00  0.00000000E+00  0.00000000E+00
  0.00000000E+00  0.00000000E+00  0.00000000E+00
  0.00000000E+00  0.00000000E+00  0.00000000E+00
  0.00000000E+00  0.00000000E+00  0.00000000E+00
  0.00000000E+00  0.00000000E+00  0.00000000E+00
  0.00000000E+00  0.00000000E+00  0.00000000E+00
  0.00000000E+00  0.00000000E+00  0.00000000E+00
  0.00000000E+00  0.00000000E+00  0.00000000E+00
  0.00000000E+00  0.00000000E+00  0.00000000E+00
  0.00000000E+00  0.00000000E+00  0.00000000E+00
  0.00000000E+00  0.00000000E+00  0.00000000E+00
  0.00000000E+00  0.00000000E+00  0.00000000E+00
  0.00000000E+00  0.00000000E+00  0.00000000E+00
  0.00000000E+00  0.00000000E+00  0.00000000E+00
  0.00000000E+00  0.00000000E+00  0.00000000E+00
  0.00000000E+00  0.00000000E+00  0.00000000E+00
  0.00000000E+00  0.00000000E+00  0.00000000E+00
  0.00000000E+00  0.00000000E+00  0.00000000E+00
  0.00000000E+00  0.00000000E+00  0.00000000E+00
  0.00000000E+00  0.00000000E+00  0.00000000E+00
  0.00000000E+00  0.00000000E+00  0.00000000E+00
  0.00000000E+00  0.00000000E+00  0.00000000E+00
  0.00000000E+00  0.00000000E+00  0.00000000E+00
  0.00000000E+00  0.00000000E+00  0.00000000E+00
  0.00000000E+00  0.00000000E+00  0.00000000E+00
  0.00000000E+00  0.00000000E+00  0.00000000E+00
  0.00000000E+00  0.00000000E+00  0.00000000E+00
  0.00000000E+00  0.00000000E+00  0.00000000E+00
  0.00000000E+00  0.00000000E+00  0.00000000E+00
  0.00000000E+00  0.00000000E+00  0.00000000E+00
  0.00000000E+00  0.00000000E+00  0.00000000E+00
  0.00000000E+00  0.00000000E+00  0.00000000E+00
  0.00000000E+00  0.00000000E+00  0.00000000E+00
  0.00000000E+00  0.00000000E+00  0.00000000E+00
  0.00000000E+00  0.00000000E+00  0.00000000E+00
  0.00000000E+00  0.00000000E+00  0.00000000E+00
  0.00000000E+00  0.00000000E+00  0.00000000E+00
  0.00000000E+00  0.00000000E+00  0.00000000E+00
  0.00000000E+00  0.00000000E+00  0.00000000E+00
  0.00000000E+00  0.00000000E+00  0.00000000E+00
