B96 C16                                 
    1.000000000000000     
     9.3604337707553658   -0.6732699214184098    4.2962520482381485
     3.4999611884379349    8.7132894301050072    4.2978802931438462
     0.1069306044017984    0.0705922816040264   10.3195593275117723
   B    C 
    96    16
Direct
  0.1601828696735172  0.4003734657864566  0.4003580832012996
  0.1601828696735172  0.4003734657864566  0.9003580832013002
  0.1601828696735172  0.9003734657864568  0.4003580832012996
  0.1601828696735172  0.9003734657864569  0.9003580832013002
  0.6601828696735171  0.4003734657864566  0.4003580832012996
  0.6601828696735171  0.4003734657864566  0.9003580832013002
  0.6601828696735171  0.9003734657864569  0.4003580832012996
  0.6601828696735171  0.9003734657864569  0.9003580832013002
  0.4003710534102485  0.4003778325453233  0.1602283404686849
  0.4003710534102485  0.4003778325453233  0.6602283404686848
  0.4003710534102485  0.9003778325453232  0.1602283404686849
  0.4003710534102485  0.9003778325453232  0.6602283404686848
  0.9003710534102489  0.4003778325453233  0.1602283404686849
  0.9003710534102489  0.4003778325453233  0.6602283404686848
  0.9003710534102489  0.9003778325453232  0.1602283404686849
  0.9003710534102489  0.9003778325453232  0.6602283404686848
  0.4003431597301674  0.1601318190810058  0.4003409618235615
  0.4003431597301674  0.1601318190810058  0.9003409618235618
  0.4003431597301674  0.6601318190810059  0.4003409618235615
  0.4003431597301674  0.6601318190810059  0.9003409618235618
  0.9003431597301673  0.1601318190810058  0.4003409618235615
  0.9003431597301673  0.1601318190810058  0.9003409618235618
  0.9003431597301673  0.6601318190810059  0.4003409618235615
  0.9003431597301673  0.6601318190810059  0.9003409618235618
  0.3398171303264828  0.0996265342135433  0.0996419167987002
  0.3398171303264828  0.0996265342135433  0.5996419167986998
  0.3398171303264828  0.5996265342135431  0.0996419167987002
  0.3398171303264828  0.5996265342135431  0.5996419167986998
  0.8398171303264829  0.0996265342135433  0.0996419167987002
  0.8398171303264829  0.0996265342135433  0.5996419167986998
  0.8398171303264829  0.5996265342135431  0.0996419167987002
  0.8398171303264829  0.5996265342135431  0.5996419167986998
  0.0996289465897513  0.0996221674546766  0.3397716595313152
  0.0996289465897513  0.0996221674546766  0.8397716595313152
  0.0996289465897513  0.5996221674546768  0.3397716595313152
  0.0996289465897513  0.5996221674546768  0.8397716595313152
  0.5996289465897511  0.0996221674546766  0.3397716595313152
  0.5996289465897511  0.0996221674546766  0.8397716595313152
  0.5996289465897511  0.5996221674546768  0.3397716595313152
  0.5996289465897511  0.5996221674546768  0.8397716595313152
  0.0996568402698327  0.3398681809189943  0.0996590381764383
  0.0996568402698327  0.3398681809189943  0.5996590381764382
  0.0996568402698327  0.8398681809189941  0.0996590381764383
  0.0996568402698327  0.8398681809189941  0.5996590381764382
  0.5996568402698327  0.3398681809189943  0.0996590381764383
  0.5996568402698327  0.3398681809189943  0.5996590381764382
  0.5996568402698327  0.8398681809189941  0.0996590381764383
  0.5996568402698327  0.8398681809189941  0.5996590381764382
  0.3321400517504952  0.0002513050668966  0.0002738153979712
  0.3321400517504952  0.0002513050668966  0.5002738153979712
  0.3321400517504952  0.5002513050668966  0.0002738153979712
  0.3321400517504952  0.5002513050668966  0.5002738153979712
  0.8321400517504952  0.0002513050668966  0.0002738153979712
  0.8321400517504952  0.0002513050668966  0.5002738153979712
  0.8321400517504952  0.5002513050668966  0.0002738153979712
  0.8321400517504952  0.5002513050668966  0.5002738153979712
  0.0002212996067138  0.0002305630569880  0.3321876096621272
  0.0002212996067138  0.0002305630569880  0.8321876096621273
  0.0002212996067138  0.5002305630569880  0.3321876096621272
  0.0002212996067138  0.5002305630569880  0.8321876096621273
  0.5002212996067137  0.0002305630569880  0.3321876096621272
  0.5002212996067137  0.0002305630569880  0.8321876096621273
  0.5002212996067137  0.5002305630569880  0.3321876096621272
  0.5002212996067137  0.5002305630569880  0.8321876096621273
  0.0002952871678252  0.3320287471326672  0.0003380587779751
  0.0002952871678252  0.3320287471326672  0.5003380587779752
  0.0002952871678252  0.8320287471326675  0.0003380587779751
  0.0002952871678252  0.8320287471326675  0.5003380587779752
  0.5002952871678251  0.3320287471326672  0.0003380587779751
  0.5002952871678251  0.3320287471326672  0.5003380587779752
  0.5002952871678251  0.8320287471326675  0.0003380587779751
  0.5002952871678251  0.8320287471326675  0.5003380587779752
  0.1678599482495048  0.9997486949331034 -0.0002738153979711
  0.1678599482495048  0.9997486949331034  0.4997261846020288
  0.1678599482495048  0.4997486949331034 -0.0002738153979711
  0.1678599482495048  0.4997486949331034  0.4997261846020288
  0.6678599482495048  0.9997486949331034 -0.0002738153979711
  0.6678599482495048  0.9997486949331034  0.4997261846020288
  0.6678599482495048  0.4997486949331034 -0.0002738153979711
  0.6678599482495048  0.4997486949331034  0.4997261846020288
 -0.0002212996067137 -0.0002305630569879  0.1678123903378727
 -0.0002212996067137 -0.0002305630569879  0.6678123903378727
 -0.0002212996067137  0.4997694369430121  0.1678123903378727
 -0.0002212996067137  0.4997694369430121  0.6678123903378727
  0.4997787003932863 -0.0002305630569879  0.1678123903378727
  0.4997787003932863 -0.0002305630569879  0.6678123903378727
  0.4997787003932863  0.4997694369430121  0.1678123903378727
  0.4997787003932863  0.4997694369430121  0.6678123903378727
  0.9997047128321749  0.1679712528673329 -0.0003380587779752
  0.9997047128321749  0.1679712528673329  0.4996619412220250
  0.9997047128321749  0.6679712528673325 -0.0003380587779752
  0.9997047128321749  0.6679712528673325  0.4996619412220250
  0.4997047128321748  0.1679712528673329 -0.0003380587779752
  0.4997047128321748  0.1679712528673329  0.4996619412220250
  0.4997047128321748  0.6679712528673325 -0.0003380587779752
  0.4997047128321748  0.6679712528673325  0.4996619412220250
  0.3151565483105824  0.3151472281907787  0.3151638434711267
  0.3151565483105824  0.3151472281907787  0.8151638434711268
  0.3151565483105824  0.8151472281907789  0.3151638434711267
  0.3151565483105824  0.8151472281907789  0.8151638434711268
  0.8151565483105824  0.3151472281907787  0.3151638434711267
  0.8151565483105824  0.3151472281907787  0.8151638434711268
  0.8151565483105824  0.8151472281907789  0.3151638434711267
  0.8151565483105824  0.8151472281907789  0.8151638434711268
  0.1848434516894177  0.1848527718092212  0.1848361565288734
  0.1848434516894177  0.1848527718092212  0.6848361565288732
  0.1848434516894177  0.6848527718092211  0.1848361565288734
  0.1848434516894177  0.6848527718092211  0.6848361565288732
  0.6848434516894176  0.1848527718092212  0.1848361565288734
  0.6848434516894176  0.1848527718092212  0.6848361565288732
  0.6848434516894176  0.6848527718092211  0.1848361565288734
  0.6848434516894176  0.6848527718092211  0.6848361565288732
 
  0.00000000E+00  0.00000000E+00  0.00000000E+00
  0.00000000E+00  0.00000000E+00  0.00000000E+00
  0.00000000E+00  0.00000000E+00  0.00000000E+00
  0.00000000E+00  0.00000000E+00  0.00000000E+00
  0.00000000E+00  0.00000000E+00  0.00000000E+00
  0.00000000E+00  0.00000000E+00  0.00000000E+00
  0.00000000E+00  0.00000000E+00  0.00000000E+00
  0.00000000E+00  0.00000000E+00  0.00000000E+00
  0.00000000E+00  0.00000000E+00  0.00000000E+00
  0.00000000E+00  0.00000000E+00  0.00000000E+00
  0.00000000E+00  0.00000000E+00  0.00000000E+00
  0.00000000E+00  0.00000000E+00  0.00000000E+00
  0.00000000E+00  0.00000000E+00  0.00000000E+00
  0.00000000E+00  0.00000000E+00  0.00000000E+00
  0.00000000E+00  0.00000000E+00  0.00000000E+00
  0.00000000E+00  0.00000000E+00  0.00000000E+00
  0.00000000E+00  0.00000000E+00  0.00000000E+00
  0.00000000E+00  0.00000000E+00  0.00000000E+00
  0.00000000E+00  0.00000000E+00  0.00000000E+00
  0.00000000E+00  0.00000000E+00  0.00000000E+00
  0.00000000E+00  0.00000000E+00  0.00000000E+00
  0.00000000E+00  0.00000000E+00  0.00000000E+00
  0.00000000E+00  0.00000000E+00  0.00000000E+00
  0.00000000E+00  0.00000000E+00  0.00000000E+00
  0.00000000E+00  0.00000000E+00  0.00000000E+00
  0.00000000E+00  0.00000000E+00  0.00000000E+00
  0.00000000E+00  0.00000000E+00  0.00000000E+00
  0.00000000E+00  0.00000000E+00  0.00000000E+00
  0.00000000E+00  0.00000000E+00  0.00000000E+00
  0.00000000E+00  0.00000000E+00  0.00000000E+00
  0.00000000E+00  0.00000000E+00  0.00000000E+00
  0.00000000E+00  0.00000000E+00  0.00000000E+00
  0.00000000E+00  0.00000000E+00  0.00000000E+00
  0.00000000E+00  0.00000000E+00  0.00000000E+00
  0.00000000E+00  0.00000000E+00  0.00000000E+00
  0.00000000E+00  0.00000000E+00  0.00000000E+00
  0.00000000E+00  0.00000000E+00  0.00000000E+00
  0.00000000E+00  0.00000000E+00  0.00000000E+00
  0.00000000E+00  0.00000000E+00  0.00000000E+00
  0.00000000E+00  0.00000000E+00  0.00000000E+00
  0.00000000E+00  0.00000000E+00  0.00000000E+00
  0.00000000E+00  0.00000000E+00  0.00000000E+00
  0.00000000E+00  0.00000000E+00  0.00000000E+00
  0.00000000E+00  0.00000000E+00  0.00000000E+00
  0.00000000E+00  0.00000000E+00  0.00000000E+00
  0.00000000E+00  0.00000000E+00  0.00000000E+00
  0.00000000E+00  0.00000000E+00  0.00000000E+00
  0.00000000E+00  0.00000000E+00  0.00000000E+00
  0.00000000E+00  0.00000000E+00  0.00000000E+00
  0.00000000E+00  0.00000000E+00  0.00000000E+00
  0.00000000E+00  0.00000000E+00  0.00000000E+00
  0.00000000E+00  0.00000000E+00  0.00000000E+00
  0.00000000E+00  0.00000000E+00  0.00000000E+00
  0.00000000E+00  0.00000000E+00  0.00000000E+00
  0.00000000E+00  0.00000000E+00  0.00000000E+00
  0.00000000E+00  0.00000000E+00  0.00000000E+00
  0.00000000E+00  0.00000000E+00  0.00000000E+00
  0.00000000E+00  0.00000000E+00  0.00000000E+00
  0.00000000E+00  0.00000000E+00  0.00000000E+00
  0.00000000E+00  0.00000000E+00  0.00000000E+00
  0.00000000E+00  0.00000000E+00  0.00000000E+00
  0.00000000E+00  0.00000000E+00  0.00000000E+00
  0.00000000E+00  0.00000000E+00  0.00000000E+00
  0.00000000E+00  0.00000000E+00  0.00000000E+00
  0.00000000E+00  0.00000000E+00  0.00000000E+00
  0.00000000E+00  0.00000000E+00  0.00000000E+00
  0.00000000E+00  0.00000000E+00  0.00000000E+00
  0.00000000E+00  0.00000000E+00  0.00000000E+00
  0.00000000E+00  0.00000000E+00  0.00000000E+00
  0.00000000E+00  0.00000000E+00  0.00000000E+00
  0.00000000E+00  0.00000000E+00  0.00000000E+00
  0.00000000E+00  0.00000000E+00  0.00000000E+00
  0.00000000E+00  0.00000000E+00  0.00000000E+00
  0.00000000E+00  0.00000000E+00  0.00000000E+00
  0.00000000E+00  0.00000000E+00  0.00000000E+00
  0.00000000E+00  0.00000000E+00  0.00000000E+00
  0.00000000E+00  0.00000000E+00  0.00000000E+00
  0.00000000E+00  0.00000000E+00  0.00000000E+00
  0.00000000E+00  0.00000000E+00  0.00000000E+00
  0.00000000E+00  0.00000000E+00  0.00000000E+00
  0.00000000E+00  0.00000000E+00  0.00000000E+00
  0.00000000E+00  0.00000000E+00  0.00000000E+00
  0.00000000E+00  0.00000000E+00  0.00000000E+00
  0.00000000E+00  0.00000000E+00  0.00000000E+00
  0.00000000E+00  0.00000000E+00  0.00000000E+00
  0.00000000E+00  0.00000000E+00  0.00000000E+00
  0.00000000E+00  0.00000000E+00  0.00000000E+00
  0.00000000E+00  0.00000000E+00  0.00000000E+00
  0.00000000E+00  0.00000000E+00  0.00000000E+00
  0.00000000E+00  0.00000000E+00  0.00000000E+00
  0.00000000E+00  0.00000000E+00  0.00000000E+00
  0.00000000E+00  0.00000000E+00  0.00000000E+00
  0.00000000E+00  0.00000000E+00  0.00000000E+00
  0.00000000E+00  0.00000000E+00  0.00000000E+00
  0.00000000E+00  0.00000000E+00  0.00000000E+00
  0.00000000E+00  0.00000000E+00  0.00000000E+00
  0.00000000E+00  0.00000000E+00  0.00000000E+00
  0.00000000E+00  0.00000000E+00  0.00000000E+00
  0.00000000E+00  0.00000000E+00  0.00000000E+00
  0.00000000E+00  0.00000000E+00  0.00000000E+00
  0.00000000E+00  0.00000000E+00  0.00000000E+00
  0.00000000E+00  0.00000000E+00  0.00000000E+00
  0.00000000E+00  0.00000000E+00  0.00000000E+00
  0.00000000E+00  0.00000000E+00  0.00000000E+00
  0.00000000E+00  0.00000000E+00  0.00000000E+00
  0.00000000E+00  0.00000000E+00  0.00000000E+00
  0.00000000E+00  0.00000000E+00  0.00000000E+00
  0.00000000E+00  0.00000000E+00  0.00000000E+00
  0.00000000E+00  0.00000000E+00  0.00000000E+00
  0.00000000E+00  0.00000000E+00  0.00000000E+00
  0.00000000E+00  0.00000000E+00  0.00000000E+00
  0.00000000E+00  0.00000000E+00  0.00000000E+00
