B96 C24                                 
    1.000000000000000     
     9.2390869999999996    0.0501890000000000    4.1911430000000003
     2.6767470000000002    9.0995699999999999    4.2858470000000004
    -0.0514440000000000    0.0720330000000000   10.4080630000000003
   B    C 
    96    24
Direct
  0.1635549312235622  0.3955762483152883  0.4066634456128418
  0.1656665471740133  0.3963936788361934  0.9070619989011443
  0.1567184542584814  0.8999246587071488  0.4079593225678659
  0.1512271897056034  0.9058314244710725  0.8995724736461940
  0.6527330496108681  0.4180081553872849  0.3992690388916955
  0.6605161218199140  0.3993852853984065  0.9028903271019074
  0.6683883602584509  0.9017254377878221  0.4097645594907622
  0.6573978003810108  0.9036443625001063  0.8982913199378334
  0.4066654494893368  0.3861755584060461  0.1682526385642100
  0.4040140696545103  0.4128759904152526  0.6529957296745396
  0.3997297198886860  0.9056629751974214  0.1499739702935076
  0.4009671670487147  0.9094275834052455  0.6572495094698332
  0.8939567788442780  0.3893047502607125  0.1569874423205971
  0.9039064422083162  0.4079656832090780  0.6532089118931511
  0.8991139095103399  0.9031303066219619  0.1490109890389426
  0.9002279070585910  0.8971777560625731  0.6608489452538441
  0.4083420626656018  0.1483903323528467  0.4043410704814259
  0.3970822595005284  0.1585381822103419  0.9017948177161238
  0.3988073419782801  0.6678749627669349  0.4051461018219646
  0.4017753865409482  0.6647567829752502  0.9020037600066422
  0.8914579530906289  0.1585443574929108  0.4104116788393171
  0.9047871584113900  0.1607352142306388  0.8970268100168506
  0.9096779129424148  0.6575690131781814  0.3897423511592911
  0.9029411563117437  0.6475980687084302  0.9068678178811636
  0.3416369902103958  0.0968205471287355  0.0954720827919873
  0.3503167004556523  0.0963064519868322  0.6000584072551770
  0.3401336165260416  0.5848334594307061  0.0932648038010557
  0.3377910373341212  0.5996732851324211  0.6011611030535212
  0.8489716979146715  0.0960497403879963  0.0912887752947469
  0.8337664197114516  0.1000654432508923  0.6078112517927228
  0.8377568805767660  0.5912814213895201  0.1032037030041402
  0.8392087435795281  0.6018239419704442  0.5861590038558234
  0.0991604226163621  0.0998912399520693  0.3436412086346510
  0.0994280562248785  0.0993510728719447  0.8447839358255333
  0.1099388819629935  0.5939022580327800  0.3318563744557141
  0.1021188156951177  0.5894964094028927  0.8498765526388902
  0.6031485666289967  0.0854469551250870  0.3500473884931299
  0.5919668720151765  0.0989715029714009  0.8447064402165079
  0.5934533082574263  0.6108394889078200  0.3396367923031082
  0.6019029960136667  0.6024514416558783  0.8456988282557206
  0.0962832448018096  0.3298679141770373  0.0992067294884968
  0.1082624707168735  0.3491686813749365  0.5937285443468451
  0.0879412343594815  0.8423072549897070  0.0931140439420622
  0.0936722040449093  0.8358391337696791  0.6057099910990068
  0.6023578094140616  0.3325639930413440  0.1040049079820506
  0.5957868033692568  0.3544298957860041  0.5963628277602054
  0.5983941703311662  0.8446537871145642  0.0913872654587832
  0.5974983423550601  0.8482690538581732  0.6016091982533547
  0.4888410167953689  0.5079775590950818  0.3341561792278988
  0.4972371007500817  0.5014401628006316  0.8350079524766015
  0.4977688188496783  0.9908245486907636  0.3393813956081637
  0.4919335532197697  0.9956021296015364  0.8357175609231923
  0.0038849897866562  0.4844316746890691  0.3348045695050346
  0.0004341037311471  0.4925709004815343  0.8379636491255126
  0.9959826151675213  0.0028814791732096  0.3331050051304135
  0.9890150312998092  0.0044839506609346  0.8321092087806549
  0.4916023235550539  0.3477251571691325  0.4933282537899881
  0.4960957789772694  0.3327895566408477  0.0010082730075123
  0.4965600503698857  0.8351959930659866  0.5020171892163974
  0.4906768963759798  0.8356809669168145  0.9988436690086443
  0.9961840864626560  0.3331499679990844  0.5026639660468561
  0.9985554393510502  0.3290168815544002  0.9922585202976184
  0.9963088868443205  0.8373214595937948  0.4954044971391665
  0.9872567640601844  0.8361921169462763  0.9920186936188268
  0.1693243840289952  0.9966015734129611  0.0028509474591094
  0.1702214936917180  0.0026922307323110  0.5035977524196713
  0.1701058234479663  0.4904133115012495  0.0122491497663345
  0.1723489764664067  0.5150086036855365  0.4941003493504256
  0.6673986314676005  0.0086040455056104  0.9929777274186169
  0.6755448150409790  0.0021839683433503  0.5066635321350204
  0.6705707190224981  0.4932775799831436  0.0098798763742290
  0.6708181241498881  0.5132133894507267  0.4899615560247684
  0.0071872701252234  0.0020913588334961  0.1621564012084027
  0.9990154861115180  0.0016065798434932  0.6637848377316115
  0.0064842835307357  0.4898835041585735  0.1665263275505205
  0.0078510379765913  0.5118990034902293  0.6532971392755689
  0.5011135861865392  0.0008177914726325  0.1645099609352504
  0.5114515023332200  0.0003148246087199  0.6707413342853937
  0.4996238263252234  0.4989043542814305  0.1658633967340665
  0.5026553531591104  0.5116739613003370  0.6599354997358103
  0.0090969798664700  0.1602689787628586  0.0023345433964491
  0.0024494806324952  0.1611163339895686  0.5118508186260678
  0.0064689510409982  0.6519403039755195  0.0062623861154190
  0.0069853919135907  0.6722244497611515  0.4911199348898986
  0.5024509824330837  0.1631350447029704  0.0029956366787376
  0.5034916746969430  0.1731092686688277  0.4993666844093539
  0.5050075031629098  0.6518815885342161  0.0111308597758620
  0.5007144631575631  0.6773860728331420  0.5018968885574532
  0.2535782074497972  0.2320310190883396  0.2562492242842492
  0.2485389150682077  0.2575092010860096  0.7485169965482580
  0.2520127363278247  0.7481942751610098  0.2445607418086713
  0.2284807903754072  0.7635016252114750  0.7548853749487731
  0.7326130736842119  0.2406288532918891  0.2664876787221839
  0.7302221523008107  0.2639775752577352  0.7529994094192176
  0.7589898268124892  0.7514449930024090  0.2452763961539912
  0.7456389575598823  0.7509969013975016  0.7515656202593693
  0.3422302067254237  0.5116711528299760  0.4871119122940592
  0.3430862378409711  0.4889829721426253  0.0004614122394927
  0.3360547238295352  0.9967428143930517  0.5061608704301094
  0.3350950213735511  0.9924832051576288  0.0003507134639904
  0.8402624779386993  0.5039931540495128  0.4894463144681478
  0.8390897041135132  0.4864081540896026  0.0030976771128919
  0.8388105337660874  0.9971117415436965  0.5040375684761722
  0.8368862178588889  0.0039355459298383  0.9873175103735603
  0.3112960067070057  0.2935449881175446  0.3144311114173955
  0.3145167408532686  0.3124754453138907  0.8052198198989563
  0.2984986268222256  0.8186181396749964  0.3035299075129801
  0.3027582040799474  0.8197069578424738  0.8054082198665924
  0.7934824468215966  0.3049537224346330  0.3148439857344839
  0.8052769477175644  0.3155270729072824  0.8056940083711851
  0.8112899826610983  0.8140692772129774  0.3066395302047711
  0.8076874969098423  0.8041870716253676  0.8174871081454590
  0.1875819882439103  0.1858390210917797  0.1921256949813497
  0.1945948167761144  0.1952553476182421  0.6868411294154668
  0.1818397743292240  0.6982664845673707  0.1812222706902812
  0.1909292762275351  0.6846770425938514  0.6942835863796897
  0.6977310551964234  0.1769330941643527  0.1941423265350415
  0.6799105867901183  0.2012045363876835  0.6923376669463038
  0.6986335578998611  0.7014106549236128  0.1812950583122047
  0.6951778662954675  0.6832674160523777  0.6897232655854221
 
 -0.23636762E-02  0.84334301E-02  0.32412037E-02
  0.16528782E-02 -0.35454654E-02 -0.59978730E-02
 -0.30253167E-02 -0.18456650E-02 -0.31824161E-02
 -0.73739928E-02  0.13845914E-02 -0.26916396E-02
 -0.10053153E-01  0.91772532E-02  0.33044635E-02
  0.10634103E-02 -0.66605727E-02 -0.37785176E-02
  0.32981426E-03  0.20604075E-02  0.93794287E-02
 -0.95808053E-05 -0.14455308E-03 -0.44796063E-02
  0.17276797E-02 -0.85381244E-03  0.63648268E-03
  0.60468552E-02  0.32949526E-02 -0.11213971E-02
  0.48394778E-03 -0.24047565E-02 -0.45509356E-02
  0.35432791E-02  0.77543290E-02  0.31828336E-02
 -0.58298708E-02  0.17166585E-02  0.30606401E-02
  0.31669776E-02  0.59651866E-02  0.79327435E-02
 -0.61886102E-02  0.14002542E-02  0.53999337E-03
 -0.68072253E-02 -0.41961162E-02  0.88963939E-02
  0.79981391E-02  0.88552375E-03 -0.23330422E-02
 -0.65404361E-02 -0.39680312E-02  0.26542153E-02
  0.26438090E-02 -0.46205368E-02  0.16237801E-02
  0.77333586E-03  0.21635658E-02  0.70641194E-02
  0.41418128E-02  0.26481514E-02  0.74593864E-02
 -0.36675188E-02 -0.11968046E-01  0.67664149E-02
  0.98973811E-02  0.27718932E-02 -0.49527628E-02
  0.18065456E-02 -0.99993729E-02 -0.65238972E-02
  0.31600755E-02  0.21120388E-02  0.23215376E-02
  0.69213028E-02  0.28938786E-02 -0.21583023E-02
  0.84013428E-02 -0.11544043E-01 -0.93040289E-02
 -0.72335983E-02  0.47185882E-02  0.62246548E-03
  0.40723952E-04 -0.65604613E-02 -0.56425353E-02
 -0.62149790E-02 -0.36541961E-02 -0.56388662E-02
  0.14871665E-02 -0.13653495E-02 -0.37661791E-02
 -0.13144138E-02 -0.25770544E-03  0.33780428E-02
 -0.28407374E-03  0.12681792E-02 -0.18887125E-02
  0.44957556E-02 -0.82040177E-02 -0.54228747E-03
  0.58045589E-02  0.91991282E-03  0.15662365E-02
 -0.19600691E-02  0.12617292E-02 -0.31030938E-02
  0.58384201E-03  0.12476445E-02  0.40513614E-02
 -0.43776071E-03  0.44239309E-02  0.48484709E-02
 -0.30667904E-02 -0.31824334E-02  0.58088050E-02
  0.69709846E-02 -0.86228043E-03 -0.16158725E-02
 -0.70826686E-02 -0.76306276E-02 -0.92665924E-02
 -0.17544805E-05 -0.21130009E-02  0.46894474E-02
 -0.15672404E-01 -0.14575695E-02  0.10746947E-03
  0.60354430E-03  0.47026342E-02  0.28404165E-02
  0.43173940E-03 -0.87846967E-03 -0.10484871E-02
  0.80228718E-02  0.66154695E-02 -0.23337997E-02
 -0.28086363E-02 -0.29371472E-02 -0.33136620E-02
 -0.70566767E-02 -0.44607716E-02 -0.21637553E-02
 -0.76922005E-02  0.76047035E-02  0.31438349E-02
 -0.69065129E-03  0.26498007E-04 -0.25666881E-02
  0.35691926E-02 -0.17340227E-02  0.37499564E-03
 -0.29898611E-02 -0.33350303E-03 -0.22214531E-03
  0.46037226E-02 -0.18966048E-02  0.24591530E-02
  0.30403007E-02  0.14046730E-02 -0.35534958E-02
 -0.74293106E-02 -0.24899883E-02 -0.49630603E-03
  0.21634372E-02  0.26404043E-02 -0.17752474E-02
 -0.18755049E-02  0.46594872E-02 -0.12705266E-02
  0.74400321E-02 -0.69583455E-02 -0.21633869E-02
  0.94007637E-04  0.50569323E-02  0.86266212E-02
  0.58643849E-02 -0.73772501E-05  0.41839843E-02
  0.49681775E-02 -0.23878058E-02  0.11039353E-01
  0.16333091E-02  0.21537793E-02 -0.88361463E-02
 -0.15266347E-02  0.22943706E-02  0.39676116E-02
 -0.19132468E-02  0.22655555E-02 -0.94002115E-02
  0.49702148E-02 -0.19074641E-02  0.46494073E-02
 -0.30983223E-04 -0.97807560E-03  0.32271659E-02
 -0.58479900E-02 -0.25971325E-02 -0.28330607E-02
  0.43719218E-02  0.29190313E-02  0.32473965E-03
 -0.49788157E-02 -0.15541480E-02 -0.12508851E-02
  0.15481399E-02  0.37031212E-02  0.10090645E-02
  0.55533434E-02 -0.59751514E-02  0.13610758E-02
 -0.12566133E-02  0.67093224E-02  0.90609302E-02
 -0.88553771E-02  0.55183019E-03 -0.38663375E-02
 -0.34446553E-02 -0.20579445E-02 -0.17607775E-02
 -0.11056148E-03  0.32987920E-02  0.24853013E-02
  0.61733915E-02  0.97074984E-02 -0.18051089E-02
  0.22786954E-02 -0.99999467E-03 -0.37213525E-02
  0.90783045E-02  0.48238320E-02  0.10932779E-02
 -0.32023383E-02 -0.25918068E-02 -0.37770593E-02
 -0.51106878E-03  0.93279903E-02  0.22788175E-02
 -0.95492393E-02 -0.22694577E-02  0.22510906E-02
 -0.26118244E-03  0.22213915E-02  0.46596111E-02
 -0.39965605E-02  0.27734737E-02 -0.31202596E-02
  0.47875825E-02  0.34878486E-03 -0.17828629E-03
 -0.22735675E-03 -0.82014739E-02  0.23346923E-03
 -0.32431628E-02  0.53794209E-02 -0.44263277E-03
  0.11546775E-02 -0.48707360E-02  0.42357316E-02
  0.76420649E-03  0.37643856E-02  0.16792517E-04
  0.49807606E-02 -0.50453721E-02  0.39313848E-02
  0.35219266E-03 -0.12515640E-01 -0.71426837E-02
  0.55523106E-02  0.62975470E-02  0.66830779E-02
  0.10647691E-01 -0.15163006E-02  0.26696667E-02
  0.11050481E-02 -0.52300574E-02  0.29772269E-03
  0.96683914E-02 -0.19250747E-05 -0.27035861E-02
 -0.11804536E-03  0.31743544E-02  0.62262869E-02
  0.16101031E-02 -0.93374193E-02  0.33115453E-03
  0.13508639E-02  0.10658337E-01  0.24566328E-02
 -0.52985286E-03 -0.50177110E-02 -0.50603508E-02
 -0.33498029E-02 -0.26319665E-02  0.83181065E-03
 -0.56203477E-02  0.37172966E-02 -0.13776923E-02
  0.31640476E-02  0.44381723E-02  0.26194654E-02
 -0.62094808E-02 -0.22042153E-02 -0.63328389E-02
 -0.43578061E-02 -0.18196940E-02  0.21063830E-02
 -0.60123775E-02  0.40305271E-02 -0.16331890E-02
 -0.21305347E-02 -0.71420083E-02 -0.30500485E-02
  0.46715223E-02 -0.40779534E-02 -0.10538249E-02
 -0.13916954E-01  0.15205857E-01 -0.34323322E-02
  0.31929577E-02 -0.17468674E-02 -0.61973509E-02
 -0.41527460E-02 -0.68233343E-02 -0.76090825E-02
  0.45136399E-02  0.29992087E-02  0.43991887E-02
 -0.25860764E-02  0.27358027E-03 -0.40133048E-02
 -0.76345378E-02  0.32961860E-02  0.11724412E-03
 -0.70088296E-03 -0.51988306E-02 -0.29966555E-03
 -0.33798338E-02  0.63405289E-03 -0.71808257E-02
  0.27491212E-02  0.17698808E-02 -0.14862058E-02
  0.37195353E-02 -0.68469179E-03  0.33458706E-02
  0.77411805E-02  0.22530132E-02  0.78487190E-03
 -0.27649021E-02  0.39153518E-02 -0.46360699E-03
  0.58104992E-02  0.41927331E-03 -0.19043878E-02
  0.35445664E-02 -0.20011845E-02  0.51683566E-02
 
            1
   0.5000000000000000     
  0.58795214E+00 -0.23412402E-02  0.00000000E+00  0.00000000E+00
  0.16329289E+00  0.39604054E+00  0.40673349E+00
  0.16581057E+00  0.39620018E+00  0.90679555E+00
  0.15658345E+00  0.89982444E+00  0.40790207E+00
  0.15080547E+00  0.90590977E+00  0.89958073E+00
  0.65204359E+00  0.41851442E+00  0.39949695E+00
  0.66067921E+00  0.39901917E+00  0.90279390E+00
  0.66837661E+00  0.90183547E+00  0.41017456E+00
  0.65739791E+00  0.90363810E+00  0.89807865E+00
  0.40677277E+00  0.38612800E+00  0.16825959E+00
  0.40428742E+00  0.41305742E+00  0.65275707E+00
  0.39979280E+00  0.90553200E+00  0.14978388E+00
  0.40103519E+00  0.90985369E+00  0.65719956E+00
  0.89361534E+00  0.38939901E+00  0.15723315E+00
  0.90398469E+00  0.40829132E+00  0.65342440E+00
  0.89875721E+00  0.90320813E+00  0.14914852E+00
  0.89993090E+00  0.89694373E+00  0.66149229E+00
  0.40875912E+00  0.14843907E+00  0.40404098E+00
  0.39679364E+00  0.15831910E+00  0.90212876E+00
  0.39902508E+00  0.66761912E+00  0.40524178E+00
  0.40178507E+00  0.66487334E+00  0.90229122E+00
  0.89164201E+00  0.15868707E+00  0.41063714E+00
  0.90478391E+00  0.16007287E+00  0.89762591E+00
  0.91016628E+00  0.65772257E+00  0.38924453E+00
  0.90319702E+00  0.64704872E+00  0.90667759E+00
  0.34177467E+00  0.96935771E-01  0.95480720E-01
  0.35064335E+00  0.96466044E-01  0.59975747E+00
  0.34076960E+00  0.58419913E+00  0.92822948E-01
  0.33732457E+00  0.59993426E+00  0.60127138E+00
  0.84907721E+00  0.95689986E-01  0.91123363E-01
  0.83348720E+00  0.99866801E-01  0.60773460E+00
  0.83785776E+00  0.59120735E+00  0.10301265E+00
  0.83914314E+00  0.60180860E+00  0.58635402E+00
  0.99123975E-01  0.99961957E-01  0.34353603E+00
  0.99802635E-01  0.98898139E-01  0.84479356E+00
  0.11023833E+00  0.59395167E+00  0.33179069E+00
  0.10199145E+00  0.58956745E+00  0.84974952E+00
  0.60316159E+00  0.85514158E-01  0.35020910E+00
  0.59187395E+00  0.99213750E-01  0.84487703E+00
  0.59334095E+00  0.61066210E+00  0.34003414E+00
  0.60229291E+00  0.60240361E+00  0.84548389E+00
  0.96019683E-01  0.32945141E+00  0.99039206E-01
  0.10829811E+00  0.34905032E+00  0.59398821E+00
  0.87117866E-01  0.84222879E+00  0.93483075E-01
  0.93630306E-01  0.83609739E+00  0.60575697E+00
  0.60239486E+00  0.33251588E+00  0.10395943E+00
  0.59611310E+00  0.35479472E+00  0.59596909E+00
  0.59828836E+00  0.84449338E+00  0.91336737E-01
  0.59718792E+00  0.84802469E+00  0.60173088E+00
  0.48830434E+00  0.50839684E+00  0.33435067E+00
  0.49719839E+00  0.50144269E+00  0.83489920E+00
  0.49798969E+00  0.99072830E+00  0.33935010E+00
  0.49177728E+00  0.99558419E+00  0.83577720E+00
  0.41651596E-02  0.48432553E+00  0.33485360E+00
  0.57446075E-03  0.49264936E+00  0.83770411E+00
  0.99562102E+00  0.27452466E-02  0.33328287E+00
  0.98908882E+00  0.46300141E-02  0.83193407E+00
  0.49142561E+00  0.34798292E+00  0.49323224E+00
  0.49660881E+00  0.33240559E+00  0.85586596E-03
  0.49648711E+00  0.83547165E+00  0.50234747E+00
  0.49099547E+00  0.83567822E+00  0.99891751E+00
  0.99649509E+00  0.33301340E+00  0.50312530E+00
  0.99860573E+00  0.32913887E+00  0.99176355E+00
  0.99619102E+00  0.83744670E+00  0.49559099E+00
  0.98711341E+00  0.83632093E+00  0.99157179E+00
  0.16962536E+00  0.99649394E+00  0.29974260E-02
  0.17023676E+00  0.26370451E-02  0.50376936E+00
  0.16983051E+00  0.49027186E+00  0.12282162E-01
  0.17253841E+00  0.51516896E+00  0.49397364E+00
  0.66715411E+00  0.85194178E-02  0.99305095E+00
  0.67556933E+00  0.23876694E-02  0.50661826E+00
  0.67096734E+00  0.49294674E+00  0.99217841E-02
  0.67064581E+00  0.51358020E+00  0.49031518E+00
  0.66984501E-02  0.21243965E-02  0.16215390E+00
  0.99886177E+00  0.14941616E-02  0.66380844E+00
  0.64262289E-02  0.49006455E+00  0.16659455E+00
  0.80278989E-02  0.51243443E+00  0.65291873E+00
  0.50125138E+00  0.76376242E-03  0.16429795E+00
  0.51186492E+00  0.57936704E-03  0.67051845E+00
  0.49949102E+00  0.49876323E+00  0.16579354E+00
  0.50247867E+00  0.51218773E+00  0.65990456E+00
  0.86183283E-02  0.16014413E+00  0.26868406E-02
  0.24014268E-02  0.16123713E+00  0.51204427E+00
  0.62072446E-02  0.65209500E+00  0.61541735E-02
  0.72384088E-02  0.67224315E+00  0.49100178E+00
  0.50257061E+00  0.16268255E+00  0.31450105E-02
  0.50322981E+00  0.17340660E+00  0.49932843E+00
  0.50514978E+00  0.65161113E+00  0.11388419E-01
  0.50069526E+00  0.67759363E+00  0.50181996E+00
  0.25392992E+00  0.23175056E+00  0.25641195E+00
  0.24875640E+00  0.25682146E+00  0.74836948E+00
  0.25221406E+00  0.74853842E+00  0.24465901E+00
  0.22908150E+00  0.76341561E+00  0.75480715E+00
  0.73275696E+00  0.24034008E+00  0.26656295E+00
  0.73074358E+00  0.26397728E+00  0.75265968E+00
  0.75893478E+00  0.75161774E+00  0.24552654E+00
  0.74587616E+00  0.75048147E+00  0.75169825E+00
  0.34213282E+00  0.51225801E+00  0.48702749E+00
  0.34313634E+00  0.48870817E+00  0.31129574E-03
  0.33591634E+00  0.99659773E+00  0.50631630E+00
  0.33473107E+00  0.99268951E+00  0.34613765E-03
  0.84036310E+00  0.50423658E+00  0.48943139E+00
  0.83878722E+00  0.48628976E+00  0.29640071E-02
  0.83860511E+00  0.99701110E+00  0.50426292E+00
  0.83649595E+00  0.41592728E-02  0.98730408E+00
  0.31129452E+00  0.29315244E+00  0.31444683E+00
  0.31483431E+00  0.31225030E+00  0.80513403E+00
  0.29750094E+00  0.81946004E+00  0.30342009E+00
  0.30295646E+00  0.81961256E+00  0.80506954E+00
  0.79336485E+00  0.30458075E+00  0.31467939E+00
  0.80547429E+00  0.31569027E+00  0.80575867E+00
  0.81114433E+00  0.81408623E+00  0.30649840E+00
  0.80722204E+00  0.80436982E+00  0.81760492E+00
  0.18762756E+00  0.18555243E+00  0.19221096E+00
  0.19439928E+00  0.19529350E+00  0.68655919E+00
  0.18195931E+00  0.69836434E+00  0.18106244E+00
  0.19114253E+00  0.68463752E+00  0.69437472E+00
  0.69811342E+00  0.17705610E+00  0.19397541E+00
  0.67969808E+00  0.20142105E+00  0.69231181E+00
  0.69894006E+00  0.70143378E+00  0.18107063E+00
  0.69540351E+00  0.68315460E+00  0.68992715E+00
 -0.26387547E-03  0.45644510E-03  0.82291206E-04
  0.15473226E-03 -0.19813197E-03 -0.26321051E-03
 -0.12862860E-03 -0.11718544E-03 -0.52882589E-04
 -0.42102791E-03  0.74742862E-04  0.32233396E-05
 -0.69343880E-03  0.52201450E-03  0.22673462E-03
  0.17735078E-03 -0.37990971E-03 -0.10775501E-03
 -0.20131880E-05  0.11707029E-03  0.41053267E-03
  0.75806840E-05 -0.99160906E-05 -0.22403249E-03
  0.10925910E-03 -0.59495071E-04  0.19995255E-04
  0.27793395E-03  0.19379942E-03 -0.24598377E-03
  0.66911236E-04 -0.12318259E-03 -0.20569543E-03
  0.67053276E-04  0.43856617E-03 -0.57162228E-04
 -0.34962369E-03  0.86896777E-04  0.24218208E-03
  0.78080714E-04  0.32772946E-03  0.21389426E-03
 -0.35443422E-03  0.72130007E-04  0.13296289E-03
 -0.29080697E-03 -0.23874233E-03  0.64036026E-03
  0.42212422E-03  0.47549443E-04 -0.30518612E-03
 -0.29635033E-03 -0.21301786E-03  0.33357019E-03
  0.22345153E-03 -0.26459854E-03  0.11075344E-03
  0.83131467E-05  0.12375788E-03  0.29275095E-03
  0.17066425E-03  0.14628823E-03  0.22805885E-03
  0.71495534E-05 -0.66782789E-03  0.59838460E-03
  0.48593521E-03  0.15781619E-03 -0.50422152E-03
  0.25813132E-03 -0.55042604E-03 -0.19235251E-03
  0.14652387E-03  0.11342921E-03  0.35295377E-05
  0.34221561E-03  0.14331530E-03 -0.29973571E-03
  0.64576916E-03 -0.65283092E-03 -0.45223866E-03
 -0.47482261E-03  0.25037332E-03  0.12275437E-03
  0.11983607E-03 -0.36135812E-03 -0.17307171E-03
 -0.28507713E-03 -0.19634202E-03 -0.65693214E-04
  0.83034500E-04 -0.66713115E-04 -0.17984750E-03
 -0.79231060E-04 -0.85045193E-05  0.19072471E-03
 -0.21718096E-04  0.83934062E-04 -0.12576837E-03
  0.36942732E-03 -0.45403782E-03  0.23797394E-04
  0.31693013E-03  0.48617681E-04 -0.80166911E-04
 -0.12449365E-03  0.70954720E-04 -0.12523426E-03
  0.12034326E-04  0.46246328E-04  0.17442556E-03
 -0.96515441E-04  0.23781934E-03  0.18001085E-03
 -0.12465977E-03 -0.17953838E-03  0.40426181E-03
  0.39516523E-03 -0.25622428E-04 -0.22300165E-03
 -0.25932877E-03 -0.43115352E-03 -0.16552137E-03
  0.50850652E-04 -0.12018996E-03  0.25661946E-03
 -0.83576466E-03 -0.84488405E-04  0.37516831E-03
 -0.47943423E-04  0.24708871E-03  0.60739564E-04
  0.37248257E-04 -0.54304903E-04 -0.39115521E-04
  0.32397947E-03  0.36095781E-03 -0.38118398E-03
 -0.10700789E-03 -0.16759353E-03 -0.50796243E-04
 -0.32264919E-03 -0.22536974E-03  0.11787164E-03
 -0.54309814E-03  0.41947854E-03  0.19660567E-03
 -0.34620622E-04  0.24616440E-05 -0.11249989E-03
  0.21960269E-03 -0.95737968E-04 -0.34684720E-04
 -0.15706623E-03 -0.18660286E-04  0.40117310E-04
  0.28630803E-03 -0.11693893E-03  0.46484572E-04
  0.14420298E-03  0.74537325E-04 -0.24818262E-03
 -0.35850325E-03 -0.12901945E-03  0.16445877E-03
  0.66688861E-04  0.15374386E-03 -0.17584575E-03
 -0.17919424E-03  0.25551314E-03 -0.97032162E-04
  0.51117108E-03 -0.38475845E-03 -0.14715899E-03
 -0.71584450E-04  0.25286624E-03  0.33248639E-03
  0.31087075E-03  0.69940237E-05  0.75753722E-04
  0.30790033E-03 -0.14147469E-03  0.46325976E-03
  0.51947244E-04  0.11436220E-03 -0.49993247E-03
 -0.11251261E-03  0.11837717E-03  0.18606977E-03
 -0.14917374E-03  0.12884467E-03 -0.44719539E-03
  0.30295072E-03 -0.11311015E-03  0.14558460E-03
  0.19908031E-04 -0.52414988E-04  0.16476603E-03
 -0.28199174E-03 -0.14642439E-03  0.40804213E-04
  0.18266671E-03  0.16896878E-03 -0.12726834E-03
 -0.24601393E-03 -0.77956409E-04  0.59515677E-04
  0.32803086E-04  0.20049058E-03 -0.49630625E-04
  0.39322830E-03 -0.33380755E-03  0.49756071E-04
 -0.17238893E-03  0.36735281E-03  0.33741311E-03
 -0.48278599E-03  0.35118644E-04  0.57731295E-06
 -0.15804906E-03 -0.11194860E-03  0.13738713E-04
 -0.49779100E-04  0.17912690E-03  0.65850909E-04
  0.17990983E-03  0.53979089E-03 -0.39103709E-03
  0.13065930E-03 -0.55297969E-04 -0.20768764E-03
  0.42298586E-03  0.25266373E-03 -0.19692496E-03
 -0.13542906E-03 -0.13646082E-03 -0.80209231E-04
 -0.18162720E-03  0.51333857E-03 -0.35351744E-04
 -0.47314909E-03 -0.12278163E-03  0.35489236E-03
 -0.45570016E-04  0.11401162E-03  0.20526100E-03
 -0.25501699E-03  0.14414184E-03 -0.10883296E-03
  0.25711029E-03  0.31601035E-04 -0.12377436E-03
  0.12245596E-03 -0.45285615E-03  0.14819773E-03
 -0.26894281E-03  0.31179743E-03 -0.43304118E-04
  0.14709032E-03 -0.29512944E-03  0.26840080E-03
 -0.22201203E-04  0.23394136E-03 -0.80420627E-04
  0.35491588E-03 -0.28719413E-03  0.16494655E-03
  0.21708824E-03 -0.68304597E-03 -0.14442716E-03
  0.21321011E-03  0.34707984E-03  0.10663002E-03
  0.58648064E-03 -0.77674041E-04 -0.75783242E-04
  0.14307720E-03 -0.28655166E-03  0.81611240E-04
  0.50595138E-03 -0.31853197E-05 -0.34282413E-03
 -0.52864252E-04  0.16609440E-03  0.24490856E-03
  0.23161608E-03 -0.50707586E-03  0.13397085E-03
 -0.83868186E-04  0.59358748E-03 -0.99210085E-04
  0.57254590E-04 -0.27370750E-03 -0.14781169E-03
 -0.15195001E-03 -0.14532567E-03  0.16466000E-03
 -0.36857621E-03  0.19927577E-03  0.59888305E-05
  0.96556302E-04  0.24820788E-03 -0.16472514E-04
 -0.29999435E-03 -0.12584009E-03 -0.13029489E-03
 -0.20477794E-03 -0.10285625E-03  0.22966883E-03
 -0.38891894E-03  0.22769909E-03 -0.19922380E-04
  0.41632237E-05 -0.40342861E-03  0.14199841E-04
  0.32442935E-03 -0.22875626E-03 -0.86335455E-04
 -0.10116731E-02  0.85525316E-03 -0.11800907E-03
  0.19443639E-03 -0.76198642E-04 -0.34476484E-03
 -0.12569597E-03 -0.38724834E-03 -0.16897821E-03
  0.18436417E-03  0.17152173E-03  0.69213435E-04
 -0.14131993E-03  0.20010465E-04 -0.14470324E-03
 -0.46295414E-03  0.18540497E-03  0.13018056E-03
  0.31931258E-04 -0.27886738E-03  0.97439389E-04
 -0.20008838E-03  0.51693719E-04 -0.28920916E-03
  0.82583542E-04  0.12351335E-03 -0.15782946E-03
  0.22292575E-03 -0.44658974E-04  0.83010943E-04
  0.38677509E-03  0.12466938E-03 -0.15297328E-03
 -0.21724508E-03  0.23697191E-03 -0.19624627E-04
  0.32280931E-03  0.43833383E-04 -0.23010640E-03
  0.22811754E-03 -0.13289368E-03  0.20875459E-03
  0.00000000E+00  0.00000000E+00  0.00000000E+00
  0.00000000E+00  0.00000000E+00  0.00000000E+00
  0.00000000E+00  0.00000000E+00  0.00000000E+00
  0.00000000E+00  0.00000000E+00  0.00000000E+00
  0.00000000E+00  0.00000000E+00  0.00000000E+00
  0.00000000E+00  0.00000000E+00  0.00000000E+00
  0.00000000E+00  0.00000000E+00  0.00000000E+00
  0.00000000E+00  0.00000000E+00  0.00000000E+00
  0.00000000E+00  0.00000000E+00  0.00000000E+00
  0.00000000E+00  0.00000000E+00  0.00000000E+00
  0.00000000E+00  0.00000000E+00  0.00000000E+00
  0.00000000E+00  0.00000000E+00  0.00000000E+00
  0.00000000E+00  0.00000000E+00  0.00000000E+00
  0.00000000E+00  0.00000000E+00  0.00000000E+00
  0.00000000E+00  0.00000000E+00  0.00000000E+00
  0.00000000E+00  0.00000000E+00  0.00000000E+00
  0.00000000E+00  0.00000000E+00  0.00000000E+00
  0.00000000E+00  0.00000000E+00  0.00000000E+00
  0.00000000E+00  0.00000000E+00  0.00000000E+00
  0.00000000E+00  0.00000000E+00  0.00000000E+00
  0.00000000E+00  0.00000000E+00  0.00000000E+00
  0.00000000E+00  0.00000000E+00  0.00000000E+00
  0.00000000E+00  0.00000000E+00  0.00000000E+00
  0.00000000E+00  0.00000000E+00  0.00000000E+00
  0.00000000E+00  0.00000000E+00  0.00000000E+00
  0.00000000E+00  0.00000000E+00  0.00000000E+00
  0.00000000E+00  0.00000000E+00  0.00000000E+00
  0.00000000E+00  0.00000000E+00  0.00000000E+00
  0.00000000E+00  0.00000000E+00  0.00000000E+00
  0.00000000E+00  0.00000000E+00  0.00000000E+00
  0.00000000E+00  0.00000000E+00  0.00000000E+00
  0.00000000E+00  0.00000000E+00  0.00000000E+00
  0.00000000E+00  0.00000000E+00  0.00000000E+00
  0.00000000E+00  0.00000000E+00  0.00000000E+00
  0.00000000E+00  0.00000000E+00  0.00000000E+00
  0.00000000E+00  0.00000000E+00  0.00000000E+00
  0.00000000E+00  0.00000000E+00  0.00000000E+00
  0.00000000E+00  0.00000000E+00  0.00000000E+00
  0.00000000E+00  0.00000000E+00  0.00000000E+00
  0.00000000E+00  0.00000000E+00  0.00000000E+00
  0.00000000E+00  0.00000000E+00  0.00000000E+00
  0.00000000E+00  0.00000000E+00  0.00000000E+00
  0.00000000E+00  0.00000000E+00  0.00000000E+00
  0.00000000E+00  0.00000000E+00  0.00000000E+00
  0.00000000E+00  0.00000000E+00  0.00000000E+00
  0.00000000E+00  0.00000000E+00  0.00000000E+00
  0.00000000E+00  0.00000000E+00  0.00000000E+00
  0.00000000E+00  0.00000000E+00  0.00000000E+00
  0.00000000E+00  0.00000000E+00  0.00000000E+00
  0.00000000E+00  0.00000000E+00  0.00000000E+00
  0.00000000E+00  0.00000000E+00  0.00000000E+00
  0.00000000E+00  0.00000000E+00  0.00000000E+00
  0.00000000E+00  0.00000000E+00  0.00000000E+00
  0.00000000E+00  0.00000000E+00  0.00000000E+00
  0.00000000E+00  0.00000000E+00  0.00000000E+00
  0.00000000E+00  0.00000000E+00  0.00000000E+00
  0.00000000E+00  0.00000000E+00  0.00000000E+00
  0.00000000E+00  0.00000000E+00  0.00000000E+00
  0.00000000E+00  0.00000000E+00  0.00000000E+00
  0.00000000E+00  0.00000000E+00  0.00000000E+00
  0.00000000E+00  0.00000000E+00  0.00000000E+00
  0.00000000E+00  0.00000000E+00  0.00000000E+00
  0.00000000E+00  0.00000000E+00  0.00000000E+00
  0.00000000E+00  0.00000000E+00  0.00000000E+00
  0.00000000E+00  0.00000000E+00  0.00000000E+00
  0.00000000E+00  0.00000000E+00  0.00000000E+00
  0.00000000E+00  0.00000000E+00  0.00000000E+00
  0.00000000E+00  0.00000000E+00  0.00000000E+00
  0.00000000E+00  0.00000000E+00  0.00000000E+00
  0.00000000E+00  0.00000000E+00  0.00000000E+00
  0.00000000E+00  0.00000000E+00  0.00000000E+00
  0.00000000E+00  0.00000000E+00  0.00000000E+00
  0.00000000E+00  0.00000000E+00  0.00000000E+00
  0.00000000E+00  0.00000000E+00  0.00000000E+00
  0.00000000E+00  0.00000000E+00  0.00000000E+00
  0.00000000E+00  0.00000000E+00  0.00000000E+00
  0.00000000E+00  0.00000000E+00  0.00000000E+00
  0.00000000E+00  0.00000000E+00  0.00000000E+00
  0.00000000E+00  0.00000000E+00  0.00000000E+00
  0.00000000E+00  0.00000000E+00  0.00000000E+00
  0.00000000E+00  0.00000000E+00  0.00000000E+00
  0.00000000E+00  0.00000000E+00  0.00000000E+00
  0.00000000E+00  0.00000000E+00  0.00000000E+00
  0.00000000E+00  0.00000000E+00  0.00000000E+00
  0.00000000E+00  0.00000000E+00  0.00000000E+00
  0.00000000E+00  0.00000000E+00  0.00000000E+00
  0.00000000E+00  0.00000000E+00  0.00000000E+00
  0.00000000E+00  0.00000000E+00  0.00000000E+00
  0.00000000E+00  0.00000000E+00  0.00000000E+00
  0.00000000E+00  0.00000000E+00  0.00000000E+00
  0.00000000E+00  0.00000000E+00  0.00000000E+00
  0.00000000E+00  0.00000000E+00  0.00000000E+00
  0.00000000E+00  0.00000000E+00  0.00000000E+00
  0.00000000E+00  0.00000000E+00  0.00000000E+00