B96 C24                                 
    1.000000000000000     
     9.2390869999999996    0.0501890000000000    4.1911430000000003
     2.6767470000000002    9.0995699999999999    4.2858470000000004
    -0.0514440000000000    0.0720330000000000   10.4080630000000003
   B    C 
    96    24
Direct
  0.1592611951700443  0.4033201055397947  0.4045650521826899
  0.1589661503454507  0.4038321241004537  0.9037144956539690
  0.1575945019943361  0.9044025704492643  0.4042259841601237
  0.1580902896480303  0.9029582096059930  0.9039961131462947
  0.6584049031094978  0.4031468188390597  0.4048147310588863
  0.6582173224648032  0.4040427760487439  0.9036633473198086
  0.6574285161540762  0.9040946807714201  0.4041887088089733
  0.6584842915603432  0.9039581962055249  0.9034465905237248
  0.4010782384950011  0.4015299607221176  0.1578796442481759
  0.4018401703701911  0.4016413030684604  0.6587863939392303
  0.4017829533688874  0.9012493395847179  0.1589091956741693
  0.4022302848539044  0.9017246424663977  0.6599081135884671
  0.9007569766462882  0.4028461514094738  0.1581174046361779
  0.9005329310932815  0.4022486077518903  0.6571575762058152
  0.9012115884740037  0.9015401580332113  0.1584753314240100
  0.9018226907188924  0.9025713926961099  0.6582065986313947
  0.4020882655292561  0.1577141825282226  0.4014462000311875
  0.4018505969785212  0.1578453386824568  0.9019013540841651
  0.4016146044946937  0.6575984787435963  0.4021521435034617
  0.4024581204306492  0.6585467919528837  0.9012993562456830
  0.9008096081258321  0.1587151571332653  0.4008708780541324
  0.9013317649581641  0.1593207776616432  0.9008608643455123
  0.9002649659795651  0.6576726264543148  0.4013113337556691
  0.9016635118968021  0.6587786586709338  0.9012745963039752
  0.3419675441779748  0.0962644225867673  0.0965847943343523
  0.3414548652694732  0.0961665971461759  0.5964508659176121
  0.3420019958138117  0.5968440846871049  0.0957190045273021
  0.3410528169665281  0.5969699316069202  0.5968473059804533
  0.8415873862272163  0.0963333252093535  0.0958059563102185
  0.8415114368277218  0.0978842885452596  0.5959648890876080
  0.8414959806775739  0.5977312559912089  0.0957193635746887
  0.8421077531433978  0.5974819079941219  0.5968218748502835
  0.0985013351821505  0.0973238392150642  0.3433610540921520
  0.0990216683912572  0.0970505445756745  0.8432843374085082
  0.0986689596028599  0.5972811375130810  0.3428299297789019
  0.0994543318360970  0.5972995285619714  0.8437832763350981
  0.5996458492383910  0.0970047025574193  0.3441677476715332
  0.5991864731605625  0.0966986314471601  0.8440984126825184
  0.6000675482563839  0.5963406473313968  0.3433686464893304
  0.5998022960253493  0.5964779865799027  0.8432369132739488
  0.0992557266005834  0.3431128907731784  0.0976788149753693
  0.0984374722195180  0.3432741557292885  0.5977042203972209
  0.0998965546011659  0.8432861141288407  0.0975129061485698
  0.0985173031399034  0.8444442435150313  0.5976491297840497
  0.5989716636109074  0.3438855290558764  0.0979027800181779
  0.5993213543953327  0.3431453233142895  0.5984329634260565
  0.5988511095918628  0.8433855352105049  0.0970282177306635
  0.5996350952303235  0.8436804071665385  0.5975561836206269
  0.4949454742171240  0.4968213626037108  0.3377935698578242
  0.4940246278661234  0.4977732929420882  0.8377419019567214
  0.4945352820720794  0.9982869761699807  0.3369269720405044
  0.4946045178851996  0.9987504862572526  0.8373210433496969
  0.9945017601756706  0.4973175761294054  0.3380149100732855
  0.9947540612279739  0.4973574768799514  0.8375828078976391
  0.9937684076789444  0.9984677308298189  0.3371139822599910
  0.9927636297357995  0.9977540733432284  0.8385875453172009
  0.4947591982797842  0.3366452562858261  0.4984424808412251
  0.4950612563502689  0.3364001708753595  0.9980955549813398
  0.4933539441373150  0.8382287860095381  0.4980725080469057
  0.4943603031616426  0.8373166926220091  0.9980028672605877
  0.9946115321247095  0.3377608481566997  0.4973221483018119
  0.9946561454316415  0.3372780832291752  0.9982562776926780
  0.9931063022042380  0.8389153471721753  0.4979777735755676
  0.9943215314495868  0.8370140231984889  0.9988266653580010
  0.1714820670171427  0.0027448902408752  0.0017148579383508
  0.1706098614538743  0.0035256998242460  0.5033470838128015
  0.1714722156711366  0.5021018343660506  0.0031733034649754
  0.1715894586681822  0.5030538890681613  0.5026796862193883
  0.6705215182845791  0.0036280575670870  0.0024431769699733
  0.6705774329945214  0.0032129552433237  0.5043101767651209
  0.6718182976757199  0.5029698560073995  0.0028085833889088
  0.6707528900426146  0.5027996759061633  0.5035279127708209
  0.0043344518957959  0.0029779689425485  0.1637165234915764
  0.0042875699087183  0.0040164906074693  0.6643608548982578
  0.0042496376063186  0.5024332343726713  0.1651088237971398
  0.0042018855069603  0.5032005566316379  0.6642088099762821
  0.5043371101588724  0.0025161382986411  0.1642936381135178
  0.5046276113333756  0.0031047586106373  0.6646860686711389
  0.5036673761808018  0.5028164015538419  0.1647123761065147
  0.5044951794373372  0.5035807428247313  0.6644404469828581
  0.0049904205383850  0.1644009935566838  0.0020974028340072
  0.0041095929029168  0.1652722578778731  0.5018118139787836
  0.0047970700363754  0.6642499895221312  0.0028220545873016
  0.0041606917199042  0.6652853162202891  0.5018049448187537
  0.5039921445944388  0.1638908047795314  0.0031993951409593
  0.5040566596526213  0.1637619225860189  0.5035219711787334
  0.5046650613622431  0.6642673600390828  0.0023852256422121
  0.5040001324727207  0.6650286766413079  0.5021158698645098
  0.2441829862193116  0.2496684356477755  0.2492948087686549
  0.2454005000994314  0.2499363409242935  0.7485331752649224
  0.2445026119196797  0.7507146513334727  0.2494503045525364
  0.2454698781135218  0.7489278674383458  0.7492104481314688
  0.7440626324669274  0.2491288618911038  0.2498280352465411
  0.7457367048400226  0.2485663187843010  0.7486934165623155
  0.7454276286662294  0.7490320151722025  0.2489595377163829
  0.7448005745369530  0.7496676407257410  0.7491677220707537
  0.3409478189928464  0.4974477458715117  0.4979745667373204
  0.3407602691976262  0.4976355023267003  0.9971177949663688
  0.3401520572965497  0.9976871994288092  0.4983040633081129
  0.3402361282699302  0.9975795470959778  0.9973539625103398
  0.8396220063612949  0.4977594101424648  0.4986114615131075
  0.8405696400653930  0.4983375438255240  0.9979828232837880
  0.8396487983662763  0.9981676519086724  0.4985048827794576
  0.8395737123022917  0.9985056020820229  0.9972290247499999
  0.3046912725234526  0.3086506014710492  0.3086878110795750
  0.3054680881520286  0.3087558109552122  0.8087062880504160
  0.3045436425724714  0.8085105310358257  0.3100262135902812
  0.3054328585439771  0.8081117739041277  0.8091066254579304
  0.8044103793914680  0.3088120076283785  0.3084542862411261
  0.8039004570462300  0.3096220109247282  0.8081151507296259
  0.8039628621058342  0.8092172680959863  0.3090283661485954
  0.8048033029719761  0.8092956771432213  0.8086110294513315
  0.1907264855126388  0.1860375094164251  0.1875864023187857
  0.1904878837093705  0.1871745939935323  0.6875059431090229
  0.1916381162977888  0.6866383964287862  0.1871826362918820
  0.1903755109424292  0.6869637647805822  0.6877572180758456
  0.6904333049002989  0.1870523130813191  0.1872528853207349
  0.6905320428093937  0.1863836232097675  0.6873803889112874
  0.6910374243670621  0.6873425951679473  0.1867154118783998
  0.6902403159755319  0.6873632504268257  0.6875000944462316
 
  0.15335031E-03 -0.77015532E-03 -0.56855592E-03
 -0.20594210E-03 -0.74261649E-03  0.84085449E-04
 -0.42627726E-03 -0.79475199E-03  0.18931778E-03
 -0.29536556E-03  0.14855025E-03 -0.71677619E-03
 -0.34844098E-03  0.23995379E-03 -0.20245458E-03
  0.65803778E-03 -0.40835386E-03 -0.54048853E-03
  0.39282259E-03 -0.31674769E-03  0.46955900E-03
  0.30092130E-03 -0.60989770E-03 -0.12715027E-02
  0.24531045E-03  0.38399394E-03 -0.60651849E-03
 -0.49405588E-03  0.25004898E-03 -0.27964757E-03
  0.12175207E-02  0.85784439E-03 -0.12194507E-02
  0.40622224E-04  0.50000154E-03 -0.10192224E-02
  0.83675865E-03  0.41026911E-03 -0.78911590E-03
  0.38365035E-03 -0.60464646E-04 -0.52574425E-03
  0.63795636E-03  0.86935872E-03 -0.18446480E-03
  0.47779285E-03  0.47206467E-03 -0.99061808E-03
  0.29610921E-03 -0.43073970E-03  0.48765624E-03
  0.25944416E-03 -0.82313657E-03  0.70203197E-04
  0.15815928E-03 -0.84894837E-03 -0.36980192E-03
 -0.62899133E-04 -0.11995506E-02 -0.23731601E-03
  0.34653708E-03 -0.17261129E-03  0.60690540E-04
  0.21894139E-03 -0.47978033E-03  0.89294548E-04
 -0.28314530E-03 -0.11884125E-02  0.24281067E-03
  0.30318500E-03  0.15550805E-03  0.24740999E-03
 -0.32854123E-03 -0.69642495E-04  0.22178560E-03
  0.56069479E-03  0.22398883E-03  0.17863434E-03
 -0.67581819E-03  0.26471272E-03  0.54266123E-03
  0.69569511E-03 -0.14355389E-03 -0.52752826E-03
  0.57924541E-03  0.65150186E-03  0.32547220E-03
  0.16754097E-03 -0.32899803E-04  0.56681903E-03
  0.51850941E-03 -0.71575029E-04  0.13299677E-02
  0.34788063E-03 -0.24686616E-03 -0.66939212E-03
 -0.62416671E-03 -0.29933970E-03  0.23701267E-04
 -0.56541264E-03 -0.52909913E-03 -0.17935086E-03
 -0.16355401E-03 -0.12503389E-03  0.26331518E-03
 -0.45754795E-03 -0.15477205E-03  0.17716146E-03
 -0.33599276E-03  0.18618898E-05 -0.49319181E-04
 -0.11887011E-02 -0.67842474E-03  0.22662948E-03
 -0.67678051E-03 -0.30326541E-04  0.14010542E-03
 -0.13251462E-02 -0.31393091E-03  0.24992873E-03
 -0.10016263E-02  0.70913197E-03  0.13514931E-03
 -0.53233474E-03  0.13615368E-03 -0.56329102E-03
 -0.38222232E-03 -0.28446991E-03  0.63472713E-03
 -0.82965385E-03  0.10418294E-02 -0.79090447E-03
 -0.58736729E-04  0.90324534E-05 -0.87826891E-03
  0.13349678E-03 -0.79211854E-04 -0.53196842E-03
 -0.13737192E-03  0.85318342E-03 -0.46155003E-03
 -0.72822394E-03 -0.83943094E-04 -0.29438113E-03
 -0.66163603E-04 -0.11566530E-02 -0.77618961E-03
 -0.19922504E-03 -0.36433119E-03 -0.44215396E-03
  0.11607216E-02 -0.14775182E-03 -0.81404689E-03
 -0.10172843E-03  0.39165426E-03  0.11192451E-04
 -0.42538150E-03 -0.79599652E-03 -0.74054588E-03
  0.11883051E-03 -0.31504902E-03 -0.29716519E-03
  0.66129496E-03 -0.25588178E-03  0.24015340E-03
  0.40324023E-04 -0.35239801E-03 -0.33429474E-04
  0.50227351E-03  0.84757054E-04  0.61435302E-03
  0.19659276E-03  0.18248032E-03 -0.63377954E-03
  0.61889806E-03 -0.20630488E-03 -0.52064149E-03
 -0.36679493E-03  0.12358421E-03 -0.65532778E-03
  0.40176359E-03  0.21230359E-03  0.63221276E-03
 -0.14636202E-03 -0.40022244E-03 -0.29813354E-03
  0.54542759E-04  0.64702249E-04 -0.40005767E-03
 -0.47533618E-04  0.21943946E-03  0.55979856E-03
 -0.25480365E-03 -0.11829951E-03 -0.43812256E-03
  0.40747097E-03 -0.55551531E-03  0.37879879E-03
 -0.39593355E-03  0.17249108E-03 -0.44294777E-03
 -0.11342690E-02 -0.80725335E-03 -0.31087154E-03
 -0.26065204E-03 -0.22167096E-03 -0.44762655E-03
 -0.17392776E-04  0.33414013E-03 -0.15852058E-03
 -0.11921447E-03  0.11834565E-03 -0.91270825E-03
 -0.27007004E-03 -0.98294926E-04 -0.58730442E-03
 -0.67632679E-03  0.26837197E-04 -0.39550642E-03
 -0.19763090E-03 -0.11805601E-04  0.72489022E-05
  0.23267175E-03 -0.90364968E-04  0.61263811E-04
 -0.63979531E-03 -0.52842887E-04  0.39211832E-03
  0.31178135E-03  0.12925948E-03  0.46749767E-03
  0.51321069E-03  0.46586182E-03 -0.49612623E-03
  0.24023618E-03  0.26935538E-03 -0.79732531E-04
  0.31538046E-03 -0.13860378E-03  0.33840999E-03
  0.13642566E-03  0.39494837E-03  0.28036529E-03
 -0.22190219E-03 -0.10776061E-02 -0.22948335E-03
  0.60159561E-04 -0.52936219E-03  0.35555493E-03
 -0.62786037E-03 -0.58681560E-03 -0.31785894E-04
  0.73479003E-03  0.52856240E-03  0.15729438E-03
 -0.70967130E-03 -0.48994172E-03  0.52854878E-03
  0.43719767E-04  0.52755995E-03 -0.65077105E-03
 -0.33335504E-03  0.11670032E-03  0.57969478E-03
 -0.58511768E-03  0.61927880E-03  0.12149488E-02
  0.14090817E-02  0.89003431E-03  0.87027258E-03
  0.10275446E-03  0.65144526E-03  0.11511101E-02
  0.59949996E-03  0.25729063E-03  0.50313057E-03
  0.71191984E-03  0.11640079E-02  0.13508098E-02
  0.65783723E-03 -0.30418973E-03  0.92148658E-03
 -0.73316263E-04  0.16975637E-02  0.90964510E-03
  0.51822650E-03  0.10026303E-02  0.83248361E-03
 -0.62328401E-03 -0.21820047E-03  0.29022437E-03
  0.40994095E-03  0.35982268E-04  0.58914808E-03
 -0.97665312E-03  0.67939254E-04 -0.90744296E-04
  0.19439348E-03  0.45263191E-03 -0.23546868E-03
  0.41670160E-03 -0.39799089E-03  0.97683154E-04
 -0.81556876E-03  0.51588722E-03 -0.21964557E-04
 -0.73188547E-04  0.13962362E-04 -0.18934163E-03
  0.66292662E-03 -0.77258471E-03  0.84808618E-03
  0.25839611E-04  0.22842572E-03 -0.59006481E-03
  0.27737096E-03  0.36069695E-03 -0.99465240E-03
  0.15128472E-04 -0.46036011E-03  0.26702458E-03
  0.12044944E-03 -0.83863760E-03 -0.96374296E-03
  0.77796033E-03 -0.11313149E-02 -0.17973221E-03
  0.20379641E-03 -0.11169145E-03 -0.41951055E-03
  0.57384135E-03 -0.10800578E-02 -0.68332930E-03
  0.17099612E-03 -0.20066777E-03  0.13918332E-03
 -0.45640445E-03  0.66018079E-03  0.80204209E-03
 -0.69558387E-04  0.49827420E-03  0.13439823E-02
 -0.23790096E-03  0.15778131E-02  0.14588183E-02
 -0.31049739E-03 -0.50935651E-03  0.51590469E-03
 -0.30169118E-05  0.13148625E-02  0.15573084E-02
  0.61403057E-04  0.10498829E-02  0.40857508E-04
 -0.40988868E-03  0.34222550E-03  0.81497088E-03
 -0.54876919E-03  0.62027224E-03  0.54389368E-04
 
            1
   0.5000000000000000     
  0.91888552E+00  0.39157048E-02  0.22261081E-17  0.00000000E+00
  0.15928164E+00  0.40327782E+00  0.40454692E+00
  0.15896699E+00  0.40379115E+00  0.90373507E+00
  0.15758431E+00  0.90435871E+00  0.40425724E+00
  0.15807167E+00  0.90296672E+00  0.90396567E+00
  0.65838214E+00  0.40316018E+00  0.40480867E+00
  0.65825924E+00  0.40402037E+00  0.90362973E+00
  0.65745501E+00  0.90407698E+00  0.40420789E+00
  0.65850987E+00  0.90392500E+00  0.90338888E+00
  0.40108509E+00  0.40155134E+00  0.15783894E+00
  0.40180935E+00  0.40165527E+00  0.65877962E+00
  0.40183449E+00  0.90129698E+00  0.15881024E+00
  0.40222406E+00  0.90175261E+00  0.65985014E+00
  0.90079530E+00  0.40286898E+00  0.15805466E+00
  0.90055443E+00  0.40224542E+00  0.65712497E+00
  0.90123202E+00  0.90158811E+00  0.15843850E+00
  0.90184055E+00  0.90259775E+00  0.65814097E+00
  0.40211137E+00  0.15769020E+00  0.40147020E+00
  0.40187787E+00  0.15779987E+00  0.90191247E+00
  0.40163666E+00  0.65755177E+00  0.40214473E+00
  0.40247391E+00  0.65848072E+00  0.90130880E+00
  0.90083113E+00  0.15870557E+00  0.40086908E+00
  0.90135134E+00  0.15929425E+00  0.90086820E+00
  0.90026886E+00  0.65760701E+00  0.40134845E+00
  0.90167749E+00  0.65878710E+00  0.90127738E+00
  0.34195100E+00  0.96260537E-01  0.96603713E-01
  0.34148163E+00  0.96178814E-01  0.59644364E+00
  0.34196143E+00  0.59685857E+00  0.95755446E-01
  0.34109252E+00  0.59696213E+00  0.59680919E+00
  0.84160834E+00  0.96369068E-01  0.95798437E-01
  0.84152123E+00  0.97882236E-01  0.59598902E+00
  0.84152565E+00  0.59772673E+00  0.95773169E-01
  0.84213026E+00  0.59746850E+00  0.59678617E+00
  0.98472429E-01  0.97307396E-01  0.34338060E+00
  0.98999553E-01  0.97021497E-01  0.84329659E+00
  0.98662231E-01  0.59727416E+00  0.34284816E+00
  0.99432164E-01  0.59729098E+00  0.84380423E+00
  0.59962765E+00  0.97004867E-01  0.34417264E+00
  0.59913323E+00  0.96661270E-01  0.84414612E+00
  0.60003152E+00  0.59633901E+00  0.34339056E+00
  0.59973583E+00  0.59646074E+00  0.84328278E+00
  0.99190259E-01  0.34315208E+00  0.97695531E-01
  0.98406307E-01  0.34328195E+00  0.59768650E+00
  0.99880714E-01  0.84327023E+00  0.97556319E-01
  0.98455430E-01  0.84450212E+00  0.59761222E+00
  0.59896801E+00  0.34388637E+00  0.97861712E-01
  0.59932964E+00  0.34314114E+00  0.59840579E+00
  0.59882980E+00  0.84343279E+00  0.96995166E-01
  0.59959698E+00  0.84367598E+00  0.59755921E+00
  0.49496020E+00  0.49675786E+00  0.33777650E+00
  0.49401955E+00  0.49775339E+00  0.83773090E+00
  0.49460007E+00  0.99827899E+00  0.33686507E+00
  0.49459273E+00  0.99877210E+00  0.83731743E+00
  0.99449129E+00  0.49727400E+00  0.33800149E+00
  0.99476543E+00  0.49734020E+00  0.83757107E+00
  0.99380834E+00  0.99845344E+00  0.33711532E+00
  0.99277146E+00  0.99773464E+00  0.83859079E+00
  0.49478521E+00  0.33664963E+00  0.49845972E+00
  0.49506871E+00  0.33641045E+00  0.99805787E+00
  0.49339050E+00  0.83821753E+00  0.49803741E+00
  0.49433825E+00  0.83732381E+00  0.99797734E+00
  0.99463007E+00  0.33777227E+00  0.49734035E+00
  0.99465456E+00  0.33725614E+00  0.99825163E+00
  0.99310806E+00  0.83891906E+00  0.49795632E+00
  0.99431565E+00  0.83702592E+00  0.99885103E+00
  0.17147003E+00  0.27385640E-02  0.17012609E-02
  0.17064095E+00  0.34948586E-02  0.50336546E+00
  0.17144788E+00  0.50211157E+00  0.31578145E-02
  0.17154103E+00  0.50300962E+00  0.50270248E+00
  0.67051083E+00  0.36160332E-02  0.24309294E-02
  0.67057106E+00  0.32314509E-02  0.50429751E+00
  0.67180961E+00  0.50297675E+00  0.27653978E-02
  0.67073965E+00  0.50279451E+00  0.50350715E+00
  0.42973266E-02  0.29796860E-02  0.16371177E+00
  0.42770837E-02  0.40158615E-02  0.66436568E+00
  0.42636853E-02  0.50242820E+00  0.16510818E+00
  0.41683127E-02  0.50319757E+00  0.66424240E+00
  0.50435206E+00  0.25230508E-02  0.16430723E+00
  0.50464767E+00  0.31305828E-02  0.66464353E+00
  0.50367600E+00  0.50283126E+00  0.16469896E+00
  0.50451458E+00  0.50357293E+00  0.66445211E+00
  0.49915502E-02  0.16442266E+00  0.21014962E-02
  0.41148361E-02  0.16521293E+00  0.50182311E+00
  0.48089635E-02  0.66422064E+00  0.28464301E-02
  0.41361859E-02  0.66525304E+00  0.50182658E+00
  0.50402341E+00  0.16391981E+00  0.31824169E-02
  0.50402639E+00  0.16373478E+00  0.50357073E+00
  0.50465870E+00  0.66429671E+00  0.23444410E-02
  0.50398046E+00  0.66503493E+00  0.50214906E+00
  0.24414188E+00  0.24970221E+00  0.24935582E+00
  0.24546266E+00  0.24998493E+00  0.74852994E+00
  0.24449813E+00  0.75075014E+00  0.24949280E+00
  0.24549833E+00  0.74894179E+00  0.74921743E+00
  0.74408290E+00  0.24919247E+00  0.24985857E+00
  0.74577749E+00  0.24854910E+00  0.74872835E+00
  0.74539673E+00  0.74912532E+00  0.24897726E+00
  0.74481278E+00  0.74972257E+00  0.74918018E+00
  0.34091776E+00  0.49743568E+00  0.49800558E+00
  0.34078206E+00  0.49763721E+00  0.99713662E+00
  0.34009816E+00  0.99769111E+00  0.49831980E+00
  0.34023927E+00  0.99760458E+00  0.99733108E+00
  0.83965096E+00  0.49773737E+00  0.49861357E+00
  0.84051727E+00  0.49836611E+00  0.99799109E+00
  0.83964455E+00  0.99816850E+00  0.49849715E+00
  0.83962227E+00  0.99846257E+00  0.99726793E+00
  0.30468877E+00  0.30866342E+00  0.30865519E+00
  0.30547690E+00  0.30877605E+00  0.80864662E+00
  0.30455196E+00  0.80848503E+00  0.31004619E+00
  0.30545248E+00  0.80806586E+00  0.80907133E+00
  0.80447053E+00  0.30874957E+00  0.30844714E+00
  0.80391311E+00  0.30961598E+00  0.80809239E+00
  0.80401097E+00  0.80915788E+00  0.30900062E+00
  0.80481582E+00  0.80928453E+00  0.80861726E+00
  0.19069152E+00  0.18607368E+00  0.18762412E+00
  0.19047662E+00  0.18720158E+00  0.68756393E+00
  0.19160045E+00  0.68672491E+00  0.18723226E+00
  0.19036712E+00  0.68693551E+00  0.68779702E+00
  0.69041260E+00  0.18712425E+00  0.18730641E+00
  0.69051850E+00  0.18644152E+00  0.68736397E+00
  0.69101008E+00  0.68736121E+00  0.18675791E+00
  0.69020072E+00  0.68739752E+00  0.68750454E+00
  0.23328542E-04 -0.44412978E-04 -0.17324464E-04
  0.29333708E-05 -0.40933360E-04  0.19611738E-04
 -0.98127028E-05 -0.43609109E-04  0.30986881E-04
 -0.17455081E-04  0.71134102E-05 -0.30472372E-04
 -0.22192651E-04  0.13005865E-04 -0.52202962E-05
  0.43068941E-04 -0.21717643E-04 -0.34934897E-04
  0.26170873E-04 -0.17362373E-04  0.18952931E-04
  0.27606923E-04 -0.33154289E-04 -0.59420731E-04
  0.54070199E-05  0.20821583E-04 -0.39342487E-04
 -0.31642340E-04  0.13033830E-04 -0.46063485E-05
  0.52320499E-04  0.47549044E-04 -0.97667358E-04
 -0.58910266E-05  0.28323772E-04 -0.55054869E-04
  0.36791226E-04  0.24795216E-04 -0.62066594E-04
  0.20204441E-04 -0.35441217E-05 -0.32961947E-04
  0.19343803E-04  0.47722968E-04 -0.35352173E-04
  0.19307065E-04  0.26198972E-04 -0.65573051E-04
  0.24162495E-04 -0.24170215E-04  0.23959497E-04
  0.28253896E-04 -0.45596489E-04  0.11512188E-04
  0.21565298E-04 -0.45939402E-04 -0.70521985E-05
  0.16199612E-04 -0.63859374E-04  0.84307533E-05
  0.20067963E-04 -0.76423797E-05 -0.32236104E-05
  0.18998369E-04 -0.24544274E-04  0.62631395E-05
  0.16230634E-05 -0.65206796E-04  0.35758932E-04
  0.12840224E-04  0.10438115E-04  0.23016797E-05
 -0.16976338E-04 -0.24091792E-05  0.19352291E-04
  0.25791470E-04  0.12389209E-04 -0.73077414E-05
 -0.42349352E-04  0.16508775E-04  0.36334629E-04
  0.35999117E-04 -0.53676027E-05 -0.36788368E-04
  0.20355572E-04  0.35404075E-04 -0.76052319E-05
  0.72608554E-05  0.11503267E-05  0.24875655E-04
  0.26498387E-04 -0.16042184E-05  0.53959515E-04
  0.21918715E-04 -0.11989362E-04 -0.34218143E-04
 -0.29105500E-04 -0.16437995E-04  0.19058453E-04
 -0.21676191E-04 -0.28901745E-04  0.12032522E-04
 -0.73702533E-05 -0.67406964E-05  0.16966095E-04
 -0.20983849E-04 -0.78053976E-05  0.20379257E-04
 -0.17054340E-04 -0.22745840E-06  0.54557114E-05
 -0.53408597E-04 -0.38790603E-04  0.49213551E-04
 -0.34204603E-04 -0.31688242E-05  0.21586003E-04
 -0.65237484E-04 -0.18601722E-04  0.45195241E-04
 -0.65013288E-04  0.38892790E-04  0.17054978E-04
 -0.31794967E-04  0.68871603E-05 -0.17016401E-04
 -0.13905153E-04 -0.16542470E-04  0.43970420E-04
 -0.62946668E-04  0.59474698E-04 -0.36990528E-04
 -0.37284775E-05  0.11830418E-05 -0.39739425E-04
  0.95327928E-05 -0.54987091E-05 -0.25642978E-04
 -0.21941672E-04  0.47268856E-04 -0.33326564E-04
 -0.36230857E-04 -0.48542537E-05  0.34041747E-05
  0.15009409E-04 -0.64749208E-04 -0.16726294E-04
 -0.63257037E-05 -0.19612595E-04 -0.10530744E-04
  0.64457832E-04 -0.72654951E-05 -0.62949470E-04
 -0.11971316E-04  0.23777081E-04 -0.36212494E-05
 -0.10963431E-04 -0.44204632E-04 -0.11793775E-04
  0.11101946E-04 -0.18404627E-04 -0.11238289E-04
  0.39131559E-04 -0.13803643E-04  0.16723258E-05
  0.51405413E-05 -0.19908635E-04  0.57778131E-05
  0.25974515E-04  0.39115428E-05  0.17109655E-04
  0.75759960E-05  0.88677540E-05 -0.37488956E-04
  0.35080913E-04 -0.10237807E-04 -0.35344570E-04
 -0.22487961E-04  0.72878522E-05 -0.24921197E-04
  0.18315185E-04  0.12520759E-04  0.17747571E-04
 -0.24086314E-05 -0.21881591E-04 -0.37999546E-05
 -0.25277738E-06  0.63846738E-05 -0.21083117E-04
 -0.66016934E-05  0.12446056E-04  0.25427055E-04
 -0.12227143E-04 -0.68981300E-05 -0.15501014E-04
  0.30337157E-04 -0.31076137E-04  0.18277626E-04
 -0.24965779E-04  0.80355820E-05 -0.15704198E-04
 -0.47717743E-04 -0.44848864E-04  0.21773131E-04
 -0.12241176E-04 -0.10652647E-04 -0.13903004E-04
 -0.78591060E-05  0.18853667E-04 -0.11359648E-04
 -0.77961674E-05  0.66214037E-05 -0.44130317E-04
 -0.14477908E-04 -0.57799901E-05 -0.20857580E-04
 -0.36250553E-04  0.21462098E-05 -0.67765412E-05
 -0.89700767E-05  0.33385836E-06  0.35883913E-05
  0.14784690E-04 -0.53111282E-05 -0.39925511E-06
 -0.33366786E-04 -0.21473659E-05  0.32598090E-04
  0.15588649E-04  0.69468635E-05  0.12135403E-04
  0.21669289E-04  0.26103470E-04 -0.44297982E-04
  0.81527664E-05  0.15494499E-04 -0.13979561E-04
  0.20963864E-04 -0.67525212E-05  0.10532385E-04
  0.33370240E-05  0.20570417E-04  0.33693602E-05
  0.62840609E-05 -0.60339163E-04  0.10617193E-04
  0.13120792E-04 -0.30443552E-04  0.24154541E-04
 -0.23770382E-04 -0.33001229E-04  0.21118296E-04
  0.31485438E-04  0.27154268E-04 -0.16391408E-04
 -0.29632714E-04 -0.30008833E-04  0.49882347E-04
 -0.59855240E-05  0.28388755E-04 -0.41488573E-04
 -0.19291608E-04  0.59075455E-05  0.32093980E-04
 -0.40958277E-04  0.36249277E-04  0.62804989E-04
  0.62575280E-04  0.50422387E-04 -0.25160050E-05
 -0.35596466E-05  0.39770178E-04  0.45065700E-04
  0.28435499E-04  0.14944573E-04  0.81877673E-05
  0.20174710E-04  0.65044938E-04  0.32995490E-04
  0.42198508E-04 -0.16200127E-04  0.36230911E-04
 -0.30405943E-04  0.94043538E-04  0.18689948E-04
  0.11972846E-04  0.56275780E-04  0.13503669E-04
 -0.26757594E-04 -0.12076070E-04  0.31074537E-04
  0.24471007E-04  0.20911859E-05  0.17897712E-04
 -0.51926422E-04  0.37138935E-05  0.16419931E-04
  0.43283110E-05  0.25196492E-04 -0.23133319E-04
  0.30432814E-04 -0.22512888E-04  0.35218779E-05
 -0.49978064E-04  0.29503962E-04  0.91057875E-05
 -0.26725260E-05  0.55342454E-06 -0.66095084E-05
  0.49998388E-04 -0.42066018E-04  0.38344750E-04
 -0.30525319E-05  0.12539685E-04 -0.34052033E-04
  0.95687595E-05  0.20040692E-04 -0.61185822E-04
  0.78077489E-05 -0.27852988E-04  0.20230453E-04
  0.20656995E-04 -0.48038651E-04 -0.35494637E-04
  0.60453500E-04 -0.64900459E-04 -0.82251254E-05
  0.10759398E-04 -0.56325097E-05 -0.23751518E-04
  0.47961498E-04 -0.59962924E-04 -0.28341413E-04
  0.11670197E-04 -0.11655882E-04  0.63791095E-05
 -0.36651743E-04  0.32752675E-04  0.37301154E-04
 -0.13259711E-04  0.25900651E-04  0.57601922E-04
 -0.38195939E-04  0.83313920E-04  0.47809105E-04
 -0.93388743E-05 -0.31780324E-04  0.40286878E-04
 -0.23308057E-04  0.71620541E-04  0.52666627E-04
 -0.14773069E-04  0.55561544E-04 -0.18799273E-04
 -0.27579406E-04  0.17775357E-04  0.40603528E-04
 -0.42729606E-04  0.33670308E-04  0.37353836E-05
  0.00000000E+00  0.00000000E+00  0.00000000E+00
  0.00000000E+00  0.00000000E+00  0.00000000E+00
  0.00000000E+00  0.00000000E+00  0.00000000E+00
  0.00000000E+00  0.00000000E+00  0.00000000E+00
  0.00000000E+00  0.00000000E+00  0.00000000E+00
  0.00000000E+00  0.00000000E+00  0.00000000E+00
  0.00000000E+00  0.00000000E+00  0.00000000E+00
  0.00000000E+00  0.00000000E+00  0.00000000E+00
  0.00000000E+00  0.00000000E+00  0.00000000E+00
  0.00000000E+00  0.00000000E+00  0.00000000E+00
  0.00000000E+00  0.00000000E+00  0.00000000E+00
  0.00000000E+00  0.00000000E+00  0.00000000E+00
  0.00000000E+00  0.00000000E+00  0.00000000E+00
  0.00000000E+00  0.00000000E+00  0.00000000E+00
  0.00000000E+00  0.00000000E+00  0.00000000E+00
  0.00000000E+00  0.00000000E+00  0.00000000E+00
  0.00000000E+00  0.00000000E+00  0.00000000E+00
  0.00000000E+00  0.00000000E+00  0.00000000E+00
  0.00000000E+00  0.00000000E+00  0.00000000E+00
  0.00000000E+00  0.00000000E+00  0.00000000E+00
  0.00000000E+00  0.00000000E+00  0.00000000E+00
  0.00000000E+00  0.00000000E+00  0.00000000E+00
  0.00000000E+00  0.00000000E+00  0.00000000E+00
  0.00000000E+00  0.00000000E+00  0.00000000E+00
  0.00000000E+00  0.00000000E+00  0.00000000E+00
  0.00000000E+00  0.00000000E+00  0.00000000E+00
  0.00000000E+00  0.00000000E+00  0.00000000E+00
  0.00000000E+00  0.00000000E+00  0.00000000E+00
  0.00000000E+00  0.00000000E+00  0.00000000E+00
  0.00000000E+00  0.00000000E+00  0.00000000E+00
  0.00000000E+00  0.00000000E+00  0.00000000E+00
  0.00000000E+00  0.00000000E+00  0.00000000E+00
  0.00000000E+00  0.00000000E+00  0.00000000E+00
  0.00000000E+00  0.00000000E+00  0.00000000E+00
  0.00000000E+00  0.00000000E+00  0.00000000E+00
  0.00000000E+00  0.00000000E+00  0.00000000E+00
  0.00000000E+00  0.00000000E+00  0.00000000E+00
  0.00000000E+00  0.00000000E+00  0.00000000E+00
  0.00000000E+00  0.00000000E+00  0.00000000E+00
  0.00000000E+00  0.00000000E+00  0.00000000E+00
  0.00000000E+00  0.00000000E+00  0.00000000E+00
  0.00000000E+00  0.00000000E+00  0.00000000E+00
  0.00000000E+00  0.00000000E+00  0.00000000E+00
  0.00000000E+00  0.00000000E+00  0.00000000E+00
  0.00000000E+00  0.00000000E+00  0.00000000E+00
  0.00000000E+00  0.00000000E+00  0.00000000E+00
  0.00000000E+00  0.00000000E+00  0.00000000E+00
  0.00000000E+00  0.00000000E+00  0.00000000E+00
  0.00000000E+00  0.00000000E+00  0.00000000E+00
  0.00000000E+00  0.00000000E+00  0.00000000E+00
  0.00000000E+00  0.00000000E+00  0.00000000E+00
  0.00000000E+00  0.00000000E+00  0.00000000E+00
  0.00000000E+00  0.00000000E+00  0.00000000E+00
  0.00000000E+00  0.00000000E+00  0.00000000E+00
  0.00000000E+00  0.00000000E+00  0.00000000E+00
  0.00000000E+00  0.00000000E+00  0.00000000E+00
  0.00000000E+00  0.00000000E+00  0.00000000E+00
  0.00000000E+00  0.00000000E+00  0.00000000E+00
  0.00000000E+00  0.00000000E+00  0.00000000E+00
  0.00000000E+00  0.00000000E+00  0.00000000E+00
  0.00000000E+00  0.00000000E+00  0.00000000E+00
  0.00000000E+00  0.00000000E+00  0.00000000E+00
  0.00000000E+00  0.00000000E+00  0.00000000E+00
  0.00000000E+00  0.00000000E+00  0.00000000E+00
  0.00000000E+00  0.00000000E+00  0.00000000E+00
  0.00000000E+00  0.00000000E+00  0.00000000E+00
  0.00000000E+00  0.00000000E+00  0.00000000E+00
  0.00000000E+00  0.00000000E+00  0.00000000E+00
  0.00000000E+00  0.00000000E+00  0.00000000E+00
  0.00000000E+00  0.00000000E+00  0.00000000E+00
  0.00000000E+00  0.00000000E+00  0.00000000E+00
  0.00000000E+00  0.00000000E+00  0.00000000E+00
  0.00000000E+00  0.00000000E+00  0.00000000E+00
  0.00000000E+00  0.00000000E+00  0.00000000E+00
  0.00000000E+00  0.00000000E+00  0.00000000E+00
  0.00000000E+00  0.00000000E+00  0.00000000E+00
  0.00000000E+00  0.00000000E+00  0.00000000E+00
  0.00000000E+00  0.00000000E+00  0.00000000E+00
  0.00000000E+00  0.00000000E+00  0.00000000E+00
  0.00000000E+00  0.00000000E+00  0.00000000E+00
  0.00000000E+00  0.00000000E+00  0.00000000E+00
  0.00000000E+00  0.00000000E+00  0.00000000E+00
  0.00000000E+00  0.00000000E+00  0.00000000E+00
  0.00000000E+00  0.00000000E+00  0.00000000E+00
  0.00000000E+00  0.00000000E+00  0.00000000E+00
  0.00000000E+00  0.00000000E+00  0.00000000E+00
  0.00000000E+00  0.00000000E+00  0.00000000E+00
  0.00000000E+00  0.00000000E+00  0.00000000E+00
  0.00000000E+00  0.00000000E+00  0.00000000E+00
  0.00000000E+00  0.00000000E+00  0.00000000E+00
  0.00000000E+00  0.00000000E+00  0.00000000E+00
  0.00000000E+00  0.00000000E+00  0.00000000E+00
  0.00000000E+00  0.00000000E+00  0.00000000E+00
  0.00000000E+00  0.00000000E+00  0.00000000E+00