B96 C24                                 
    1.000000000000000     
     9.1177158192810843    0.0410399215643521    4.1235659799512199
     2.6106308592870278    9.0204067008959967    4.2660955378206804
    -0.0841497581150690    0.1034254398318960   10.3133356253091701
   B    C 
    96    24
Direct
  0.1576940041143032  0.4044883952792749  0.4044883952837878
  0.1576940041143032  0.4044883952792749  0.9044883952837878
  0.1576940041143032  0.9044883952792744  0.4044883952837878
  0.1576940041143032  0.9044883952792744  0.9044883952837878
  0.6576940041143031  0.4044883952792749  0.4044883952837878
  0.6576940041143031  0.4044883952792749  0.9044883952837878
  0.6576940041143031  0.9044883952792744  0.4044883952837878
  0.6576940041143031  0.9044883952792744  0.9044883952837878
  0.4012864801091646  0.4011671579144069  0.1580636024472782
  0.4012864801091646  0.4011671579144069  0.6580636024472782
  0.4012864801091646  0.9011671579144069  0.1580636024472782
  0.4012864801091646  0.9011671579144069  0.6580636024472782
  0.9012864801091646  0.4011671579144069  0.1580636024472782
  0.9012864801091646  0.4011671579144069  0.6580636024472782
  0.9012864801091646  0.9011671579144069  0.1580636024472782
  0.9012864801091646  0.9011671579144069  0.6580636024472782
  0.4012864801090630  0.1580636024484672  0.4011671579142293
  0.4012864801090630  0.1580636024484672  0.9011671579142292
  0.4012864801090630  0.6580636024484672  0.4011671579142293
  0.4012864801090630  0.6580636024484672  0.9011671579142292
  0.9012864801090628  0.1580636024484672  0.4011671579142293
  0.9012864801090628  0.1580636024484672  0.9011671579142292
  0.9012864801090628  0.6580636024484672  0.4011671579142293
  0.9012864801090628  0.6580636024484672  0.9011671579142292
  0.3423223459499761  0.0957842093895707  0.0957842093839379
  0.3423223459499761  0.0957842093895707  0.5957842093839381
  0.3423223459499761  0.5957842093895708  0.0957842093839379
  0.3423223459499761  0.5957842093895708  0.5957842093839381
  0.8423223459499758  0.0957842093895707  0.0957842093839379
  0.8423223459499758  0.0957842093895707  0.5957842093839381
  0.8423223459499758  0.5957842093895708  0.0957842093839379
  0.8423223459499758  0.5957842093895708  0.5957842093839381
  0.0992782420882894  0.0978853042592528  0.3433825083373654
  0.0992782420882894  0.0978853042592528  0.8433825083373655
  0.0992782420882894  0.5978853042592530  0.3433825083373654
  0.0992782420882894  0.5978853042592530  0.8433825083373655
  0.5992782420882893  0.0978853042592528  0.3433825083373654
  0.5992782420882893  0.0978853042592528  0.8433825083373655
  0.5992782420882893  0.5978853042592530  0.3433825083373654
  0.5992782420882893  0.5978853042592530  0.8433825083373655
  0.0992782420883646  0.3433825083358878  0.0978853042600044
  0.0992782420883646  0.3433825083358878  0.5978853042600044
  0.0992782420883646  0.8433825083358873  0.0978853042600044
  0.0992782420883646  0.8433825083358873  0.5978853042600044
  0.5992782420883644  0.3433825083358878  0.0978853042600044
  0.5992782420883644  0.3433825083358878  0.5978853042600044
  0.5992782420883644  0.8433825083358873  0.0978853042600044
  0.5992782420883644  0.8433825083358873  0.5978853042600044
  0.4938048680060801  0.4981809764036693  0.3371457127750374
  0.4938048680060801  0.4981809764036693  0.8371457127750372
  0.4938048680060801  0.9981809764036694  0.3371457127750374
  0.4938048680060801  0.9981809764036694  0.8371457127750372
  0.9938048680060800  0.4981809764036693  0.3371457127750374
  0.9938048680060800  0.4981809764036693  0.8371457127750374
  0.9938048680060800  0.9981809764036694  0.3371457127750374
  0.9938048680060800  0.9981809764036694  0.8371457127750374
  0.4938048680058695  0.3371457127728259  0.4981809764065039
  0.4938048680058695  0.3371457127728259  0.9981809764065039
  0.4938048680058695  0.8371457127728257  0.4981809764065039
  0.4938048680058695  0.8371457127728257  0.9981809764065039
  0.9938048680058698  0.3371457127728259  0.4981809764065039
  0.9938048680058698  0.3371457127728259  0.9981809764065039
  0.9938048680058698  0.8371457127728257  0.4981809764065039
  0.9938048680058698  0.8371457127728257  0.9981809764065039
  0.1707943470196948  0.0035165897357433  0.0035165897372707
  0.1707943470196948  0.0035165897357433  0.5035165897372706
  0.1707943470196948  0.5035165897357431  0.0035165897372707
  0.1707943470196948  0.5035165897357431  0.5035165897372706
  0.6707943470196948  0.0035165897357433  0.0035165897372707
  0.6707943470196948  0.0035165897357433  0.5035165897372706
  0.6707943470196948  0.5035165897357431  0.0035165897372707
  0.6707943470196948  0.5035165897357431  0.5035165897372706
  0.0046178803689512  0.0023425269154627  0.1648559920192849
  0.0046178803689512  0.0023425269154627  0.6648559920192850
  0.0046178803689512  0.5023425269154627  0.1648559920192849
  0.0046178803689512  0.5023425269154627  0.6648559920192850
  0.5046178803689512  0.0023425269154627  0.1648559920192849
  0.5046178803689512  0.0023425269154627  0.6648559920192850
  0.5046178803689512  0.5023425269154627  0.1648559920192849
  0.5046178803689512  0.5023425269154627  0.6648559920192850
  0.0046178803695575  0.1648559920187309  0.0023425269143222
  0.0046178803695575  0.1648559920187309  0.5023425269143221
  0.0046178803695575  0.6648559920187311  0.0023425269143222
  0.0046178803695575  0.6648559920187311  0.5023425269143221
  0.5046178803695575  0.1648559920187309  0.0023425269143222
  0.5046178803695575  0.1648559920187309  0.5023425269143221
  0.5046178803695575  0.6648559920187311  0.0023425269143222
  0.5046178803695575  0.6648559920187311  0.5023425269143221
  0.2457311971572224  0.2491377240661252  0.2491377240624748
  0.2457311971572224  0.2491377240661252  0.7491377240624747
  0.2457311971572224  0.7491377240661250  0.2491377240624748
  0.2457311971572224  0.7491377240661250  0.7491377240624747
  0.7457311971572222  0.2491377240661252  0.2491377240624748
  0.7457311971572222  0.2491377240661252  0.7491377240624747
  0.7457311971572222  0.7491377240661250  0.2491377240624748
  0.7457311971572222  0.7491377240661250  0.7491377240624747
  0.3393651358103784  0.4974913927263673  0.4974913927252968
  0.3393651358103784  0.4974913927263673  0.9974913927252973
  0.3393651358103784  0.9974913927263673  0.4974913927252968
  0.3393651358103784  0.9974913927263673  0.9974913927252973
  0.8393651358103786  0.4974913927263673  0.4974913927252968
  0.8393651358103786  0.4974913927263673  0.9974913927252973
  0.8393651358103786  0.9974913927263673  0.4974913927252968
  0.8393651358103786  0.9974913927263673  0.9974913927252973
  0.3037813830035313  0.3101344387847444  0.3101344387843201
  0.3037813830035313  0.3101344387847444  0.8101344387843198
  0.3037813830035313  0.8101344387847441  0.3101344387843201
  0.3037813830035313  0.8101344387847441  0.8101344387843198
  0.8037813830035312  0.3101344387847444  0.3101344387843201
  0.8037813830035312  0.3101344387847444  0.8101344387843198
  0.8037813830035312  0.8101344387847441  0.3101344387843201
  0.8037813830035312  0.8101344387847441  0.8101344387843198
  0.1923366457995610  0.1864244689494823  0.1864244689488977
  0.1923366457995611  0.1864244689494823  0.6864244689488974
  0.1923366457995610  0.6864244689494823  0.1864244689488977
  0.1923366457995610  0.6864244689494823  0.6864244689488974
  0.6923366457995610  0.1864244689494823  0.1864244689488977
  0.6923366457995610  0.1864244689494823  0.6864244689488974
  0.6923366457995610  0.6864244689494823  0.1864244689488977
  0.6923366457995610  0.6864244689494823  0.6864244689488974
 
  0.00000000E+00  0.00000000E+00  0.00000000E+00
  0.00000000E+00  0.00000000E+00  0.00000000E+00
  0.00000000E+00  0.00000000E+00  0.00000000E+00
  0.00000000E+00  0.00000000E+00  0.00000000E+00
  0.00000000E+00  0.00000000E+00  0.00000000E+00
  0.00000000E+00  0.00000000E+00  0.00000000E+00
  0.00000000E+00  0.00000000E+00  0.00000000E+00
  0.00000000E+00  0.00000000E+00  0.00000000E+00
  0.00000000E+00  0.00000000E+00  0.00000000E+00
  0.00000000E+00  0.00000000E+00  0.00000000E+00
  0.00000000E+00  0.00000000E+00  0.00000000E+00
  0.00000000E+00  0.00000000E+00  0.00000000E+00
  0.00000000E+00  0.00000000E+00  0.00000000E+00
  0.00000000E+00  0.00000000E+00  0.00000000E+00
  0.00000000E+00  0.00000000E+00  0.00000000E+00
  0.00000000E+00  0.00000000E+00  0.00000000E+00
  0.00000000E+00  0.00000000E+00  0.00000000E+00
  0.00000000E+00  0.00000000E+00  0.00000000E+00
  0.00000000E+00  0.00000000E+00  0.00000000E+00
  0.00000000E+00  0.00000000E+00  0.00000000E+00
  0.00000000E+00  0.00000000E+00  0.00000000E+00
  0.00000000E+00  0.00000000E+00  0.00000000E+00
  0.00000000E+00  0.00000000E+00  0.00000000E+00
  0.00000000E+00  0.00000000E+00  0.00000000E+00
  0.00000000E+00  0.00000000E+00  0.00000000E+00
  0.00000000E+00  0.00000000E+00  0.00000000E+00
  0.00000000E+00  0.00000000E+00  0.00000000E+00
  0.00000000E+00  0.00000000E+00  0.00000000E+00
  0.00000000E+00  0.00000000E+00  0.00000000E+00
  0.00000000E+00  0.00000000E+00  0.00000000E+00
  0.00000000E+00  0.00000000E+00  0.00000000E+00
  0.00000000E+00  0.00000000E+00  0.00000000E+00
  0.00000000E+00  0.00000000E+00  0.00000000E+00
  0.00000000E+00  0.00000000E+00  0.00000000E+00
  0.00000000E+00  0.00000000E+00  0.00000000E+00
  0.00000000E+00  0.00000000E+00  0.00000000E+00
  0.00000000E+00  0.00000000E+00  0.00000000E+00
  0.00000000E+00  0.00000000E+00  0.00000000E+00
  0.00000000E+00  0.00000000E+00  0.00000000E+00
  0.00000000E+00  0.00000000E+00  0.00000000E+00
  0.00000000E+00  0.00000000E+00  0.00000000E+00
  0.00000000E+00  0.00000000E+00  0.00000000E+00
  0.00000000E+00  0.00000000E+00  0.00000000E+00
  0.00000000E+00  0.00000000E+00  0.00000000E+00
  0.00000000E+00  0.00000000E+00  0.00000000E+00
  0.00000000E+00  0.00000000E+00  0.00000000E+00
  0.00000000E+00  0.00000000E+00  0.00000000E+00
  0.00000000E+00  0.00000000E+00  0.00000000E+00
  0.00000000E+00  0.00000000E+00  0.00000000E+00
  0.00000000E+00  0.00000000E+00  0.00000000E+00
  0.00000000E+00  0.00000000E+00  0.00000000E+00
  0.00000000E+00  0.00000000E+00  0.00000000E+00
  0.00000000E+00  0.00000000E+00  0.00000000E+00
  0.00000000E+00  0.00000000E+00  0.00000000E+00
  0.00000000E+00  0.00000000E+00  0.00000000E+00
  0.00000000E+00  0.00000000E+00  0.00000000E+00
  0.00000000E+00  0.00000000E+00  0.00000000E+00
  0.00000000E+00  0.00000000E+00  0.00000000E+00
  0.00000000E+00  0.00000000E+00  0.00000000E+00
  0.00000000E+00  0.00000000E+00  0.00000000E+00
  0.00000000E+00  0.00000000E+00  0.00000000E+00
  0.00000000E+00  0.00000000E+00  0.00000000E+00
  0.00000000E+00  0.00000000E+00  0.00000000E+00
  0.00000000E+00  0.00000000E+00  0.00000000E+00
  0.00000000E+00  0.00000000E+00  0.00000000E+00
  0.00000000E+00  0.00000000E+00  0.00000000E+00
  0.00000000E+00  0.00000000E+00  0.00000000E+00
  0.00000000E+00  0.00000000E+00  0.00000000E+00
  0.00000000E+00  0.00000000E+00  0.00000000E+00
  0.00000000E+00  0.00000000E+00  0.00000000E+00
  0.00000000E+00  0.00000000E+00  0.00000000E+00
  0.00000000E+00  0.00000000E+00  0.00000000E+00
  0.00000000E+00  0.00000000E+00  0.00000000E+00
  0.00000000E+00  0.00000000E+00  0.00000000E+00
  0.00000000E+00  0.00000000E+00  0.00000000E+00
  0.00000000E+00  0.00000000E+00  0.00000000E+00
  0.00000000E+00  0.00000000E+00  0.00000000E+00
  0.00000000E+00  0.00000000E+00  0.00000000E+00
  0.00000000E+00  0.00000000E+00  0.00000000E+00
  0.00000000E+00  0.00000000E+00  0.00000000E+00
  0.00000000E+00  0.00000000E+00  0.00000000E+00
  0.00000000E+00  0.00000000E+00  0.00000000E+00
  0.00000000E+00  0.00000000E+00  0.00000000E+00
  0.00000000E+00  0.00000000E+00  0.00000000E+00
  0.00000000E+00  0.00000000E+00  0.00000000E+00
  0.00000000E+00  0.00000000E+00  0.00000000E+00
  0.00000000E+00  0.00000000E+00  0.00000000E+00
  0.00000000E+00  0.00000000E+00  0.00000000E+00
  0.00000000E+00  0.00000000E+00  0.00000000E+00
  0.00000000E+00  0.00000000E+00  0.00000000E+00
  0.00000000E+00  0.00000000E+00  0.00000000E+00
  0.00000000E+00  0.00000000E+00  0.00000000E+00
  0.00000000E+00  0.00000000E+00  0.00000000E+00
  0.00000000E+00  0.00000000E+00  0.00000000E+00
  0.00000000E+00  0.00000000E+00  0.00000000E+00
  0.00000000E+00  0.00000000E+00  0.00000000E+00
  0.00000000E+00  0.00000000E+00  0.00000000E+00
  0.00000000E+00  0.00000000E+00  0.00000000E+00
  0.00000000E+00  0.00000000E+00  0.00000000E+00
  0.00000000E+00  0.00000000E+00  0.00000000E+00
  0.00000000E+00  0.00000000E+00  0.00000000E+00
  0.00000000E+00  0.00000000E+00  0.00000000E+00
  0.00000000E+00  0.00000000E+00  0.00000000E+00
  0.00000000E+00  0.00000000E+00  0.00000000E+00
  0.00000000E+00  0.00000000E+00  0.00000000E+00
  0.00000000E+00  0.00000000E+00  0.00000000E+00
  0.00000000E+00  0.00000000E+00  0.00000000E+00
  0.00000000E+00  0.00000000E+00  0.00000000E+00
  0.00000000E+00  0.00000000E+00  0.00000000E+00
  0.00000000E+00  0.00000000E+00  0.00000000E+00
  0.00000000E+00  0.00000000E+00  0.00000000E+00
  0.00000000E+00  0.00000000E+00  0.00000000E+00
  0.00000000E+00  0.00000000E+00  0.00000000E+00
  0.00000000E+00  0.00000000E+00  0.00000000E+00
  0.00000000E+00  0.00000000E+00  0.00000000E+00
  0.00000000E+00  0.00000000E+00  0.00000000E+00
  0.00000000E+00  0.00000000E+00  0.00000000E+00
  0.00000000E+00  0.00000000E+00  0.00000000E+00
  0.00000000E+00  0.00000000E+00  0.00000000E+00
  0.00000000E+00  0.00000000E+00  0.00000000E+00
