B96 C16                                 
    1.000000000000000     
     9.4249639999999992    0.0725710000000000    4.3069759999999997
     2.7959790000000000    9.0009859999999993    4.3069769999999998
     0.0977430000000000    0.0725710000000000   10.3619710000000005
   B    C 
    96    16
Direct
  0.1616970097531090  0.4003068314568198  0.4012762965443812
  0.1606586980235719  0.4001485046832347  0.8991661011324346
  0.1589414894897876  0.9007036920279677  0.3994884949422575
  0.1615373556869772  0.9005704710181509  0.9014229498920800
  0.6592923795742043  0.3995858821144516  0.3994539158497015
  0.6610499782252424  0.3985736643550153  0.9015970169485186
  0.6607387809425935  0.9009852822307693  0.4008923979738383
  0.6601915098978176  0.9005141210822016  0.9004569963221633
  0.4004754524519683  0.3996912963356697  0.1607286007114317
  0.4007470199471085  0.4011903530537422  0.6591799620651627
  0.4014451895174431  0.9003772528700686  0.1607816841440250
  0.3995512622983821  0.8991518673227840  0.6609765515610183
  0.9011690281566659  0.4005655418250864  0.1600938139503009
  0.8991568381467899  0.3991420889994768  0.6602197322493923
  0.9006839584283713  0.9005545638450176  0.1603860627562678
  0.9010504142748738  0.9011676151808731  0.6606632429229073
  0.4003061671207334  0.1585149362880002  0.4016285567309165
  0.4012982838521539  0.1610539780169695  0.8997343299016169
  0.3996388642042814  0.6611454130567709  0.4000819121021377
  0.4007801527449386  0.6586847629961941  0.9017052569619167
  0.8999379157201151  0.1610845909024351  0.4001464689145559
  0.9002916732936069  0.1590797211160161  0.9015674000965156
  0.8989965513009361  0.6607568333210674  0.4004521877530591
  0.9022760216108960  0.6616253075882093  0.8996286663802624
  0.3404822354270455  0.0995124145645851  0.0994583256673718
  0.3378735156454725  0.0984797618144613  0.6009504624962152
  0.3393810741168461  0.5979990449598667  0.1001936787386512
  0.3404804595618835  0.5996434384328879  0.5990394550621334
  0.8389956204931130  0.0994088589416243  0.1000561745310817
  0.8404638829084105  0.1003593278412052  0.5995801625835943
  0.8414423471808955  0.5997626223489592  0.0994196025489664
  0.8382917028746519  0.5981079774006897  0.6000421126919717
  0.0988993708091870  0.1008119726836698  0.3390421600754271
  0.0992936734225633  0.0993600318679745  0.8400958562638121
  0.0990903645667625  0.6001755599379933  0.3397955686575733
  0.1009020589675656  0.5997535845409518  0.8382853671592647
  0.5994545641989213  0.0991810209851827  0.3410064652770810
  0.6005096341155320  0.0986321366839444  0.8398963125219291
  0.5991398548780115  0.6002010889132284  0.3382950454765883
  0.5991524948120905  0.5985360476587185  0.8407015946628464
  0.1004727668163264  0.3396738735678320  0.0986972301359009
  0.0987105751849981  0.3405109438754157  0.5999002133067308
  0.1000086244882728  0.8395105512658003  0.1002157955409719
  0.0993424838199372  0.8398180915646246  0.5997754930288214
  0.5996740437685025  0.3392938999416067  0.1009367534916379
  0.5995496264547473  0.3389416072646967  0.5984610975313563
  0.6001029690129526  0.8390681737235901  0.0988237745844922
  0.5996227507056174  0.8387540705601354  0.6003329547818917
  0.3318921530484076  0.0009425706941833  0.0007154424393540
  0.3319770674670089  0.9987301311741255  0.5008040343181612
  0.3339392264077132  0.4986616081312839  0.9993740821214350
  0.3320682076428810  0.5004496990904512  0.4997346966632998
  0.8329425240690183  0.0000754059586150  0.9998405449564218
  0.8309587203325184  0.0006160050894381  0.5013117865311678
  0.8330428444928615  0.5014278872429553  0.9999517986555959
  0.8325390222400459  0.4987957649282005  0.4991485940957192
  0.9986908010783648  0.0018746257743925  0.3321087863646301
  0.0006108460651739  0.9988595468069580  0.8330353117491298
  0.0008074978530987  0.5000730967273759  0.3320842372898484
  0.9989346460733413  0.5004451706665051  0.8324782561970715
  0.5004390217551778  0.0000504197137860  0.3317150033111404
  0.4988728852721855  0.0005385467882386  0.8328622260562987
  0.4982727601345434  0.5002348646810120  0.3326664825358925
  0.5011419201157754  0.4984763147133677  0.8328976503392825
  0.9999843373512797  0.3326803231228913  0.0002591744425690
  0.0014693789030633  0.3320330280375364  0.4995307511143387
  0.0016030996762177  0.8324559803168380  0.0003709050531701
  0.9986416335134281  0.8329056681803629  0.5004728154046568
  0.5015085476684432  0.3306279303209986  0.0006777764535958
  0.4984781433359514  0.3325409080098740  0.5001946361355938
  0.4993152110410071  0.8333361005417975  0.9998000998437832
  0.5009944791150220  0.8328208090978079  0.4990264271616424
  0.1670107428458671  0.0017078453993122  0.0004111236317244
  0.1677268379822107  0.9998003444121556  0.4989681901754428
  0.1681348335054041  0.5000941454483451  0.9990773073339735
  0.1655463323782555  0.5020446561839911  0.5008526895412534
  0.6689303822264601  0.9990256549600519  0.9994982849811337
  0.6662864540749184  0.0000696480632480  0.5023114306384738
  0.6678255264654399  0.5003056690035208  0.0004144068252496
  0.6677648970729693  0.4990886285181765  0.4985934251502547
  0.9995988108637187  0.0010918692292157  0.1675905904311818
  0.0004569838841276  0.0005164251540538  0.6669769158510187
  0.0017201093828797  0.5001218623528206  0.1666594017012478
  0.9980907535996864  0.5008083385347165  0.6674867847130792
  0.5013233953578214  0.9998042800646595  0.1672833240805388
  0.4975991021949855  0.9994538743283672  0.6689932228056633
  0.4992247729760446  0.5005504891639362  0.1674052109178996
  0.5014561966648441  0.4997081002926921  0.6662160907871972
  0.9993577560115988  0.1678555004049667  0.0004776378811344
  0.0002614295272971  0.1683588635621379  0.4992004833888209
  0.0021494007541195  0.6676127032486836  0.9991388433523061
  0.9978656658600191  0.6685244332945661  0.5005881892675791
  0.5012616413979982  0.1671946558616294  0.9990729425871415
  0.4979606564105153  0.1675061791279983  0.5007947623500537
  0.4990588363472984  0.6680545587470678  0.9998158050681786
  0.5002931025836662  0.6677820817936567  0.4982529863900041
  0.3157736695476422  0.3155957218745493  0.3155178567522096
  0.3157596010511355  0.3161716301700928  0.8146631888254529
  0.3140519940697040  0.8160340446796928  0.3154344894458253
  0.3153407007704579  0.8149218834636947  0.8160472887083413
  0.8145519626968089  0.3159262413177638  0.3144827581345338
  0.8157174065811720  0.3139375289135177  0.8152679426139834
  0.8153198438361620  0.8152616077292655  0.3152788462993341
  0.8170101937122063  0.8164927029276939  0.8149449593227422
  0.1853729376691800  0.1851587928944207  0.1836629843100556
  0.1832019276382012  0.1849644974638407  0.6850758053666224
  0.1840448475229425  0.6848969970729886  0.1851528314590320
  0.1850964213775224  0.6859733830058686  0.6836779465806651
  0.6844763987776528  0.1846297188734826  0.1859365626654763
  0.6849724588817179  0.1846374075927034  0.6845140702780886
  0.6862872731489784  0.6843389539757999  0.1834605823248354
  0.6836719732930453  0.6833956284167590  0.6851970732492454
 
 -0.21702128E-03  0.67775616E-03  0.89084658E-03
 -0.67591018E-03 -0.21825101E-03 -0.47213691E-03
  0.47890495E-03 -0.46999680E-03  0.22449956E-04
 -0.59013902E-04  0.78110908E-03  0.20510778E-03
  0.42977200E-03  0.35120636E-03  0.46231117E-03
 -0.10119838E-03  0.54331274E-03 -0.82009964E-03
  0.65871760E-03 -0.48863060E-03 -0.17492656E-03
  0.30084651E-03  0.34331917E-03 -0.48574240E-03
  0.16537305E-03  0.85215267E-03 -0.89647099E-03
  0.30025712E-03 -0.92732623E-03  0.82509613E-03
 -0.69015742E-03 -0.60317230E-03  0.40565711E-03
  0.51006684E-03  0.99153695E-03  0.29191919E-04
 -0.93077467E-03 -0.93565262E-04 -0.58138027E-03
  0.70491556E-03  0.17428343E-03  0.84662073E-04
 -0.23371173E-03 -0.17012233E-03  0.23268878E-03
  0.47113505E-03 -0.36212657E-04 -0.18077478E-03
 -0.41689445E-03 -0.27659069E-03 -0.13765641E-02
 -0.10907252E-02 -0.76598288E-03 -0.51945420E-03
 -0.97316212E-03 -0.14584631E-03  0.34164698E-03
  0.83433265E-03  0.27193000E-03 -0.43201496E-03
 -0.37731392E-03 -0.54438823E-03 -0.59758577E-03
 -0.30644565E-03 -0.43479045E-03 -0.33285427E-03
  0.22991259E-03 -0.15210037E-03 -0.34589553E-03
 -0.35269536E-03 -0.32938250E-03  0.23251540E-03
 -0.14844508E-04 -0.50133668E-04  0.96848059E-03
 -0.31515194E-04  0.19916939E-03 -0.87624377E-03
 -0.26101836E-03  0.57179067E-03 -0.18564133E-03
 -0.11024741E-02 -0.82662959E-03  0.10969441E-02
  0.26726948E-03 -0.14249354E-03  0.36248407E-03
  0.37792051E-03 -0.44711375E-03 -0.61921719E-03
 -0.32670703E-03 -0.49706737E-04  0.59621952E-03
  0.61693602E-03 -0.21322154E-03  0.48664933E-03
  0.14951798E-03 -0.70898961E-04  0.51092820E-04
  0.34104379E-03  0.27401294E-03  0.47885121E-03
  0.25734831E-03 -0.29580194E-03  0.12434255E-03
 -0.14398809E-03 -0.10012489E-03 -0.18331680E-03
 -0.12485633E-03 -0.11783789E-03 -0.32073584E-03
 -0.65751471E-03  0.23917695E-03 -0.33079139E-04
  0.77807270E-04  0.49914050E-03  0.17835211E-03
  0.60653096E-03  0.13622773E-04  0.34525562E-03
 -0.43432582E-03  0.12487010E-03  0.23572734E-03
  0.45024888E-03 -0.20888148E-03  0.58241202E-03
  0.20991542E-03  0.48449697E-04 -0.84521468E-03
  0.70665186E-03  0.62220169E-04  0.45770620E-03
  0.85693882E-04 -0.26447803E-03 -0.85517327E-04
  0.41705971E-03  0.45523663E-03  0.13957553E-03
  0.27856362E-03  0.51081416E-03 -0.17617022E-03
  0.14879678E-03  0.58016907E-03  0.69544643E-03
 -0.84945907E-03 -0.62680025E-03  0.25517942E-03
  0.32607606E-03 -0.61715583E-03  0.33581232E-03
  0.16908555E-03  0.71478006E-04 -0.41708146E-03
  0.36873543E-03 -0.16172855E-02  0.11110814E-02
 -0.17242502E-03  0.41917276E-03 -0.42306207E-04
  0.11647537E-03 -0.52051067E-03 -0.52862445E-03
  0.19162708E-03 -0.41299201E-03 -0.13002140E-02
  0.22874374E-03 -0.54161933E-04  0.16781671E-03
 -0.14058670E-03 -0.18802976E-03 -0.15955942E-03
  0.13716303E-03 -0.23747986E-03  0.17731622E-03
 -0.11401048E-02 -0.12050385E-02  0.40312632E-03
 -0.11188584E-02 -0.11174479E-03  0.59335845E-04
 -0.94304262E-04 -0.30298605E-03 -0.28673936E-03
 -0.28525790E-03  0.11688735E-03  0.32554156E-03
  0.27879578E-03 -0.72485371E-03 -0.23885072E-04
  0.11956288E-03  0.83317598E-04  0.46071313E-03
 -0.74584706E-03  0.47121467E-03  0.49467888E-04
  0.79436966E-03 -0.29040319E-03  0.21361327E-03
 -0.15495509E-03  0.51834929E-03 -0.31090602E-03
 -0.20961321E-03 -0.24834740E-03 -0.35834306E-03
 -0.67432735E-03 -0.26361543E-03 -0.14127830E-02
  0.27527744E-03 -0.12430956E-02  0.11950537E-03
  0.15858729E-03  0.28245385E-03 -0.63715555E-03
 -0.15379965E-03  0.89867225E-04  0.40159441E-03
 -0.60704852E-04  0.16074874E-03 -0.20480338E-03
 -0.45456898E-03  0.24061636E-03  0.31563496E-03
 -0.68857940E-05  0.32600527E-03  0.13030287E-03
  0.19154443E-03 -0.17866340E-03 -0.39722891E-03
 -0.32178217E-03  0.91148108E-03 -0.76016354E-03
 -0.18868948E-03  0.87576133E-03 -0.84781058E-03
  0.15099908E-03  0.13285103E-02  0.63420984E-03
  0.15940220E-03  0.59651307E-03  0.12383731E-02
 -0.63018788E-03  0.26045618E-03  0.65203103E-03
  0.35106292E-03  0.93855194E-05  0.14132168E-03
 -0.23301689E-03 -0.18405827E-03  0.38779171E-03
 -0.81326871E-04  0.14884531E-03  0.59898025E-03
  0.93798648E-03  0.41968245E-03 -0.13486859E-03
  0.16167749E-03  0.12163668E-02 -0.12255866E-02
 -0.44169133E-04  0.12181856E-02 -0.28176338E-03
  0.39092455E-03  0.47218045E-03 -0.47797034E-03
  0.10848588E-02 -0.33079639E-03 -0.23961119E-03
  0.12066063E-03 -0.74289901E-04  0.32573357E-04
 -0.31718675E-03 -0.12033526E-04  0.15521371E-03
 -0.14759587E-03 -0.99613233E-05  0.48492758E-03
  0.69773687E-03  0.64030911E-03  0.45632960E-03
  0.27651132E-03  0.25817784E-03 -0.30605559E-03
 -0.12739904E-04  0.12612298E-04  0.51148911E-04
 -0.20259498E-03  0.12925645E-03  0.45052573E-03
  0.81093075E-03 -0.62954014E-03  0.39580097E-03
  0.55857383E-03 -0.69986627E-04  0.80598901E-03
  0.69299717E-03  0.15559378E-03  0.83531380E-03
  0.14073488E-02  0.66867617E-03  0.17113055E-02
 -0.75477890E-04  0.34077399E-03  0.53022302E-03
  0.61409688E-03 -0.26986649E-03  0.12863728E-02
  0.84207321E-03  0.60665396E-03  0.80186910E-03
  0.20418674E-03  0.63814849E-03  0.53614751E-03
 -0.67404227E-03 -0.78928183E-03 -0.33487756E-03
 -0.33584333E-03 -0.14524909E-03 -0.86800278E-03
 -0.77638407E-03 -0.24222365E-03 -0.18875527E-02
 -0.11976800E-02 -0.15130715E-02 -0.11861497E-02
 -0.44649493E-03  0.42362046E-04 -0.41074769E-03
 -0.14826986E-03 -0.51149336E-03 -0.54695765E-03
 -0.11966593E-02 -0.23416385E-03 -0.66894116E-03
 -0.99468986E-04  0.20187259E-03 -0.50175837E-03
 
            1
   0.5000000000000000     
  0.70668866E+00  0.95599904E-03 -0.11932741E-17  0.00000000E+00
  0.16167398E+00  0.40034437E+00  0.40131325E+00
  0.16062640E+00  0.40013668E+00  0.89916166E+00
  0.15897473E+00  0.90067733E+00  0.39948672E+00
  0.16152133E+00  0.90061400E+00  0.90142142E+00
  0.65930937E+00  0.39960520E+00  0.39946113E+00
  0.66103599E+00  0.39860433E+00  0.90155051E+00
  0.66078200E+00  0.90095791E+00  0.40087737E+00
  0.66020212E+00  0.90053340E+00  0.90042113E+00
  0.40047066E+00  0.39973916E+00  0.16066744E+00
  0.40077792E+00  0.40113820E+00  0.65922861E+00
  0.40141809E+00  0.90034360E+00  0.16082651E+00
  0.39956222E+00  0.89920707E+00  0.66095046E+00
  0.90112113E+00  0.40056078E+00  0.16008765E+00
  0.89919156E+00  0.39915161E+00  0.66020543E+00
  0.90067419E+00  0.90054504E+00  0.16040531E+00
  0.90107622E+00  0.90116555E+00  0.66064466E+00
  0.40028899E+00  0.15850014E+00  0.40157542E+00
  0.40125284E+00  0.16101170E+00  0.89974572E+00
  0.39958920E+00  0.66113739E+00  0.40012238E+00
  0.40082038E+00  0.65869990E+00  0.90166140E+00
  0.89992694E+00  0.16105453E+00  0.40013469E+00
  0.90028258E+00  0.15905566E+00  0.90156512E+00
  0.89901145E+00  0.66074842E+00  0.40043280E+00
  0.90226251E+00  0.66160692E+00  0.89965314E+00
  0.34048189E+00  0.99509244E-01  0.99506520E-01
  0.33786891E+00  0.98491227E-01  0.60090533E+00
  0.33935785E+00  0.59803110E+00  0.10018105E+00
  0.34043476E+00  0.59959715E+00  0.59913062E+00
  0.83901207E+00  0.99400698E-01  0.10007022E+00
  0.84049161E+00  0.10033452E+00  0.59954907E+00
  0.84142550E+00  0.59975970E+00  0.99456590E-01
  0.83832792E+00  0.59809573E+00  0.60005563E+00
  0.98908490E-01  0.10080796E+00  0.33904250E+00
  0.99307193E-01  0.99375053E-01  0.84010710E+00
  0.99108894E-01  0.60015894E+00  0.33980078E+00
  0.10089609E+00  0.59974810E+00  0.83828128E+00
  0.59944996E+00  0.99174600E-01  0.34099557E+00
  0.60047065E+00  0.98645665E-01  0.83990530E+00
  0.59913576E+00  0.60022886E+00  0.33829381E+00
  0.59918450E+00  0.59853652E+00  0.84070476E+00
  0.10044746E+00  0.33968086E+00  0.98716221E-01
  0.98737795E-01  0.34049895E+00  0.59992199E+00
  0.10001936E+00  0.83951353E+00  0.10016931E+00
  0.99378989E-01  0.83982121E+00  0.59978111E+00
  0.59968298E+00  0.33927915E+00  0.10093504E+00
  0.59956436E+00  0.33896686E+00  0.59845121E+00
  0.60010953E+00  0.83909668E+00  0.98800697E-01
  0.59962091E+00  0.83878614E+00  0.60035395E+00
  0.33185700E+00  0.90770174E-03  0.75685912E-03
  0.33200445E+00  0.99869547E+00  0.50082326E+00
  0.33394724E+00  0.49866572E+00  0.99934892E+00
  0.33211395E+00  0.50035891E+00  0.49980703E+00
  0.83292647E+00  0.98861475E-04  0.99983543E+00
  0.83097367E+00  0.58712945E-03  0.50129207E+00
  0.83306034E+00  0.50140529E+00  0.99989118E+00
  0.83255205E+00  0.49879262E+00  0.49915258E+00
  0.99868644E+00  0.18642286E-02  0.33210722E+00
  0.62198713E-03  0.99884619E+00  0.83304479E+00
  0.76625936E-03  0.50000597E+00  0.33214873E+00
  0.99887676E+00  0.50043919E+00  0.83250767E+00
  0.50043907E+00  0.33644123E-04  0.33170812E+00
  0.49885562E+00  0.54501617E-03  0.83288242E+00
  0.49829952E+00  0.50019435E+00  0.33267105E+00
  0.50114675E+00  0.49848076E+00  0.83291603E+00
  0.99993680E+00  0.33270679E+00  0.27031769E-03
  0.15164380E-02  0.33201654E+00  0.49952835E+00
  0.15864585E-02  0.83248507E+00  0.35072806E-03
  0.99863466E+00  0.83289200E+00  0.50046410E+00
  0.50147744E+00  0.33061394E+00  0.62835240E-03
  0.49851316E+00  0.33247141E+00  0.50021474E+00
  0.49931929E+00  0.83335207E+00  0.99976102E+00
  0.50098464E+00  0.83282571E+00  0.49904786E+00
  0.16700495E+00  0.17169123E-02  0.39988063E-03
  0.16769852E+00  0.99981377E+00  0.49898961E+00
  0.16812907E+00  0.50011229E+00  0.99907845E+00
  0.16555963E+00  0.50203479E+00  0.50083209E+00
  0.66889857E+00  0.99907690E+00  0.99945352E+00
  0.66626236E+00  0.11890454E-03  0.50226006E+00
  0.66781157E+00  0.50037953E+00  0.42011051E-03
  0.66776315E+00  0.49912140E+00  0.49864029E+00
  0.99956067E+00  0.11063119E-02  0.16763190E+00
  0.47550590E-03  0.51680555E-03  0.66697588E+00
  0.17105425E-02  0.50011150E+00  0.16668640E+00
  0.99808374E+00  0.50081643E+00  0.66751524E+00
  0.50136662E+00  0.99982752E+00  0.16724919E+00
  0.49758827E+00  0.99952220E+00  0.66891019E+00
  0.49920256E+00  0.50061860E+00  0.16737254E+00
  0.50146950E+00  0.49973454E+00  0.66617651E+00
  0.99942115E+00  0.16783686E+00  0.44747438E-03
  0.26907207E-03  0.16835467E+00  0.49920062E+00
  0.21326144E-02  0.66761205E+00  0.99915358E+00
  0.99785777E+00  0.66852373E+00  0.50061517E+00
  0.50128820E+00  0.16723004E+00  0.99906922E+00
  0.49797130E+00  0.16752064E+00  0.50076956E+00
  0.49905793E+00  0.66805525E+00  0.99981836E+00
  0.50028000E+00  0.66778917E+00  0.49827722E+00
  0.31582710E+00  0.31556023E+00  0.31552950E+00
  0.31579024E+00  0.31616727E+00  0.81469116E+00
  0.31408609E+00  0.81604223E+00  0.31545722E+00
  0.31540417E+00  0.81495818E+00  0.81608840E+00
  0.81454215E+00  0.31594507E+00  0.31450460E+00
  0.81575409E+00  0.31392181E+00  0.81532130E+00
  0.81535452E+00  0.81529494E+00  0.31528927E+00
  0.81701042E+00  0.81652806E+00  0.81495604E+00
  0.18535004E+00  0.18511504E+00  0.18367453E+00
  0.18318673E+00  0.18495681E+00  0.68504343E+00
  0.18400813E+00  0.68488441E+00  0.18508225E+00
  0.18505778E+00  0.68588970E+00  0.68367156E+00
  0.68445204E+00  0.18463236E+00  0.18592577E+00
  0.68497314E+00  0.18460911E+00  0.68449916E+00
  0.68622752E+00  0.68432645E+00  0.18345834E+00
  0.68366355E+00  0.68340712E+00  0.68517159E+00
 -0.19742695E-04  0.35184115E-04  0.37325044E-04
 -0.30564009E-04 -0.13612066E-04 -0.56843138E-05
  0.34267282E-04 -0.27664264E-04 -0.32374245E-05
 -0.14331804E-04  0.42990573E-04 -0.15417888E-05
  0.18253267E-04  0.17254867E-04  0.71808756E-05
 -0.13962609E-04  0.28695707E-04 -0.45907157E-04
  0.43862582E-04 -0.26800250E-04 -0.15424713E-04
  0.88041200E-05  0.20506061E-04 -0.34405228E-04
 -0.56474421E-05  0.47352107E-04 -0.59708482E-04
  0.31662180E-04 -0.50959095E-04  0.46663458E-04
 -0.25298948E-04 -0.34137551E-04  0.44788886E-04
  0.95587155E-05  0.54044684E-04 -0.23987737E-04
 -0.47773436E-04 -0.51595420E-05 -0.64482256E-05
  0.32649138E-04  0.77587763E-05 -0.12362962E-04
 -0.92640473E-05 -0.93873090E-05  0.18786357E-04
  0.25905104E-04 -0.29846344E-05 -0.16678750E-04
 -0.14771197E-04 -0.19406110E-04 -0.50640564E-04
 -0.44899429E-04 -0.41773295E-04  0.10415041E-04
 -0.50848477E-04 -0.66753948E-05  0.40558339E-04
  0.42531279E-04  0.11913938E-04 -0.41287036E-04
 -0.10888692E-04 -0.30348767E-04 -0.12246255E-04
 -0.90545512E-05 -0.26263793E-04 -0.79276464E-07
  0.12808771E-04 -0.50852291E-05 -0.20475590E-04
 -0.12577875E-04 -0.17137489E-04  0.23377794E-04
 -0.11373157E-05 -0.38993584E-05  0.48386791E-04
 -0.61650832E-05  0.10943467E-04 -0.42988295E-04
 -0.22031786E-04  0.29463659E-04 -0.12331719E-04
 -0.44593245E-04 -0.48085143E-04  0.91386560E-04
  0.15590810E-04 -0.79821389E-05  0.13902500E-04
  0.28446651E-04 -0.24999222E-04 -0.30669046E-04
 -0.17287850E-04 -0.35721759E-05  0.37865797E-04
  0.36251095E-04 -0.13498337E-04  0.14785719E-04
  0.79655222E-05 -0.27932271E-05  0.71956288E-06
  0.13726965E-04  0.14676651E-04  0.10648261E-04
  0.19035101E-04 -0.15910717E-04  0.36110165E-05
 -0.47910193E-05 -0.51874055E-05 -0.53405200E-05
 -0.45499577E-05 -0.67070439E-05 -0.10840741E-04
 -0.38201837E-04  0.11268866E-04  0.10923200E-04
 -0.47982903E-05  0.29503530E-04 -0.15572385E-05
  0.30309596E-04  0.47326061E-06  0.41645261E-05
 -0.24686164E-04  0.59770866E-05  0.19247937E-04
  0.26346561E-04 -0.11056722E-04  0.21557363E-04
  0.11334902E-04 -0.12611501E-06 -0.45696461E-04
  0.36716534E-04  0.56232057E-06  0.87673047E-05
  0.86433128E-05 -0.15832337E-04 -0.20851952E-06
  0.15339172E-04  0.24528857E-04 -0.10437156E-04
  0.64527078E-05  0.27793706E-04 -0.23754047E-04
 -0.18593683E-06  0.29956978E-04  0.21940615E-04
 -0.35303753E-04 -0.35328283E-04  0.41399836E-04
  0.27326695E-04 -0.35747100E-04  0.20206691E-04
  0.93089778E-05  0.41879016E-05 -0.26270548E-04
  0.47515388E-04 -0.92064179E-04  0.71518920E-04
 -0.15724026E-04  0.24816467E-04 -0.64080980E-05
  0.14401682E-04 -0.30028535E-04 -0.19874835E-04
  0.18643426E-04 -0.22448275E-04 -0.60835597E-04
  0.12875065E-04 -0.42932830E-05  0.40184570E-05
 -0.49389269E-05 -0.93037734E-05 -0.23102363E-05
  0.97606796E-05 -0.14683758E-04  0.11165159E-04
 -0.42022961E-04 -0.66950987E-04  0.64296491E-04
 -0.59487007E-04 -0.70084145E-05  0.30014213E-04
 -0.10268058E-05 -0.16666656E-04 -0.85376570E-05
 -0.18613304E-04  0.63459898E-05  0.21388927E-04
  0.25858244E-04 -0.41633214E-04  0.53916688E-05
  0.46794685E-05  0.38420695E-05  0.20227005E-04
 -0.47710442E-04  0.26581546E-04  0.11510718E-04
  0.47458587E-04 -0.16764208E-04 -0.24579436E-05
 -0.16540445E-04  0.30530989E-04 -0.20187525E-04
 -0.75077006E-05 -0.13869205E-04 -0.93201608E-05
 -0.31036225E-04 -0.14906764E-04 -0.49674845E-04
  0.34223150E-04 -0.68438831E-04  0.20154977E-04
  0.36110390E-05  0.17983533E-04 -0.40047412E-04
 -0.98651336E-05  0.83324695E-05  0.20042834E-04
 -0.67074127E-05  0.11042751E-04 -0.11231987E-04
 -0.29092202E-04  0.14079607E-04  0.21942128E-04
 -0.74582863E-05  0.19494111E-04  0.19549758E-05
  0.11268223E-04 -0.78142643E-05 -0.20144353E-04
 -0.31168718E-04  0.51189498E-04 -0.44822779E-04
 -0.24480646E-04  0.49941241E-04 -0.49986401E-04
 -0.13426115E-04  0.74642400E-04  0.57414986E-05
 -0.23162481E-05  0.32965754E-04  0.47612039E-04
 -0.37211000E-04  0.15641498E-04  0.40744483E-04
  0.18244536E-04  0.13367279E-05 -0.26474740E-05
 -0.91185536E-05 -0.92975031E-05  0.26646807E-04
 -0.67866461E-05  0.91242385E-05  0.27470744E-04
  0.44086015E-04  0.24149104E-04 -0.33923781E-04
 -0.11704466E-04  0.68675723E-04 -0.83897543E-04
 -0.22324273E-04  0.69246861E-04 -0.33701678E-04
  0.14155116E-04  0.27060912E-04 -0.41330753E-04
  0.64079316E-04 -0.19157741E-04 -0.29757027E-04
  0.73445221E-05 -0.34297093E-05  0.75502658E-06
 -0.15981457E-04 -0.10232651E-05  0.14858400E-04
 -0.72423416E-05 -0.57167182E-06  0.27618988E-04
  0.27089930E-04  0.35887236E-04 -0.44740827E-05
  0.10703135E-04  0.14006013E-04 -0.25665645E-04
 -0.10065890E-05  0.70992669E-06  0.18597112E-05
 -0.13701643E-04  0.54422390E-05  0.24089659E-04
  0.52132825E-04 -0.30832336E-04  0.88864844E-05
  0.29298953E-04 -0.29089163E-05  0.28698657E-04
  0.32390166E-04  0.82486383E-05  0.24335109E-04
  0.61968491E-04  0.39793387E-04  0.39905014E-04
 -0.10934296E-04  0.19709196E-04  0.21660368E-04
  0.37706939E-04 -0.15020031E-04  0.51445092E-04
  0.35435805E-04  0.31742101E-04  0.10940798E-04
  0.40781572E-05  0.35821084E-04  0.86258006E-05
 -0.22934668E-04 -0.42333064E-04  0.98739086E-05
 -0.15634616E-04 -0.76698470E-05 -0.32587138E-04
 -0.38841980E-04 -0.10826348E-04 -0.70315894E-04
 -0.40829211E-04 -0.80601138E-04 -0.68829206E-05
 -0.24034307E-04  0.33480225E-05 -0.11473063E-04
  0.57791644E-06 -0.27685495E-04 -0.15327055E-04
 -0.57559880E-04 -0.12737041E-04 -0.39399568E-05
 -0.82005597E-05  0.11275081E-04 -0.26208501E-04
  0.00000000E+00  0.00000000E+00  0.00000000E+00
  0.00000000E+00  0.00000000E+00  0.00000000E+00
  0.00000000E+00  0.00000000E+00  0.00000000E+00
  0.00000000E+00  0.00000000E+00  0.00000000E+00
  0.00000000E+00  0.00000000E+00  0.00000000E+00
  0.00000000E+00  0.00000000E+00  0.00000000E+00
  0.00000000E+00  0.00000000E+00  0.00000000E+00
  0.00000000E+00  0.00000000E+00  0.00000000E+00
  0.00000000E+00  0.00000000E+00  0.00000000E+00
  0.00000000E+00  0.00000000E+00  0.00000000E+00
  0.00000000E+00  0.00000000E+00  0.00000000E+00
  0.00000000E+00  0.00000000E+00  0.00000000E+00
  0.00000000E+00  0.00000000E+00  0.00000000E+00
  0.00000000E+00  0.00000000E+00  0.00000000E+00
  0.00000000E+00  0.00000000E+00  0.00000000E+00
  0.00000000E+00  0.00000000E+00  0.00000000E+00
  0.00000000E+00  0.00000000E+00  0.00000000E+00
  0.00000000E+00  0.00000000E+00  0.00000000E+00
  0.00000000E+00  0.00000000E+00  0.00000000E+00
  0.00000000E+00  0.00000000E+00  0.00000000E+00
  0.00000000E+00  0.00000000E+00  0.00000000E+00
  0.00000000E+00  0.00000000E+00  0.00000000E+00
  0.00000000E+00  0.00000000E+00  0.00000000E+00
  0.00000000E+00  0.00000000E+00  0.00000000E+00
  0.00000000E+00  0.00000000E+00  0.00000000E+00
  0.00000000E+00  0.00000000E+00  0.00000000E+00
  0.00000000E+00  0.00000000E+00  0.00000000E+00
  0.00000000E+00  0.00000000E+00  0.00000000E+00
  0.00000000E+00  0.00000000E+00  0.00000000E+00
  0.00000000E+00  0.00000000E+00  0.00000000E+00
  0.00000000E+00  0.00000000E+00  0.00000000E+00
  0.00000000E+00  0.00000000E+00  0.00000000E+00
  0.00000000E+00  0.00000000E+00  0.00000000E+00
  0.00000000E+00  0.00000000E+00  0.00000000E+00
  0.00000000E+00  0.00000000E+00  0.00000000E+00
  0.00000000E+00  0.00000000E+00  0.00000000E+00
  0.00000000E+00  0.00000000E+00  0.00000000E+00
  0.00000000E+00  0.00000000E+00  0.00000000E+00
  0.00000000E+00  0.00000000E+00  0.00000000E+00
  0.00000000E+00  0.00000000E+00  0.00000000E+00
  0.00000000E+00  0.00000000E+00  0.00000000E+00
  0.00000000E+00  0.00000000E+00  0.00000000E+00
  0.00000000E+00  0.00000000E+00  0.00000000E+00
  0.00000000E+00  0.00000000E+00  0.00000000E+00
  0.00000000E+00  0.00000000E+00  0.00000000E+00
  0.00000000E+00  0.00000000E+00  0.00000000E+00
  0.00000000E+00  0.00000000E+00  0.00000000E+00
  0.00000000E+00  0.00000000E+00  0.00000000E+00
  0.00000000E+00  0.00000000E+00  0.00000000E+00
  0.00000000E+00  0.00000000E+00  0.00000000E+00
  0.00000000E+00  0.00000000E+00  0.00000000E+00
  0.00000000E+00  0.00000000E+00  0.00000000E+00
  0.00000000E+00  0.00000000E+00  0.00000000E+00
  0.00000000E+00  0.00000000E+00  0.00000000E+00
  0.00000000E+00  0.00000000E+00  0.00000000E+00
  0.00000000E+00  0.00000000E+00  0.00000000E+00
  0.00000000E+00  0.00000000E+00  0.00000000E+00
  0.00000000E+00  0.00000000E+00  0.00000000E+00
  0.00000000E+00  0.00000000E+00  0.00000000E+00
  0.00000000E+00  0.00000000E+00  0.00000000E+00
  0.00000000E+00  0.00000000E+00  0.00000000E+00
  0.00000000E+00  0.00000000E+00  0.00000000E+00
  0.00000000E+00  0.00000000E+00  0.00000000E+00
  0.00000000E+00  0.00000000E+00  0.00000000E+00
  0.00000000E+00  0.00000000E+00  0.00000000E+00
  0.00000000E+00  0.00000000E+00  0.00000000E+00
  0.00000000E+00  0.00000000E+00  0.00000000E+00
  0.00000000E+00  0.00000000E+00  0.00000000E+00
  0.00000000E+00  0.00000000E+00  0.00000000E+00
  0.00000000E+00  0.00000000E+00  0.00000000E+00
  0.00000000E+00  0.00000000E+00  0.00000000E+00
  0.00000000E+00  0.00000000E+00  0.00000000E+00
  0.00000000E+00  0.00000000E+00  0.00000000E+00
  0.00000000E+00  0.00000000E+00  0.00000000E+00
  0.00000000E+00  0.00000000E+00  0.00000000E+00
  0.00000000E+00  0.00000000E+00  0.00000000E+00
  0.00000000E+00  0.00000000E+00  0.00000000E+00
  0.00000000E+00  0.00000000E+00  0.00000000E+00
  0.00000000E+00  0.00000000E+00  0.00000000E+00
  0.00000000E+00  0.00000000E+00  0.00000000E+00
  0.00000000E+00  0.00000000E+00  0.00000000E+00
  0.00000000E+00  0.00000000E+00  0.00000000E+00
  0.00000000E+00  0.00000000E+00  0.00000000E+00
  0.00000000E+00  0.00000000E+00  0.00000000E+00
  0.00000000E+00  0.00000000E+00  0.00000000E+00
  0.00000000E+00  0.00000000E+00  0.00000000E+00
  0.00000000E+00  0.00000000E+00  0.00000000E+00
  0.00000000E+00  0.00000000E+00  0.00000000E+00
  0.00000000E+00  0.00000000E+00  0.00000000E+00
  0.00000000E+00  0.00000000E+00  0.00000000E+00
  0.00000000E+00  0.00000000E+00  0.00000000E+00
  0.00000000E+00  0.00000000E+00  0.00000000E+00
  0.00000000E+00  0.00000000E+00  0.00000000E+00
  0.00000000E+00  0.00000000E+00  0.00000000E+00
  0.00000000E+00  0.00000000E+00  0.00000000E+00
  0.00000000E+00  0.00000000E+00  0.00000000E+00
  0.00000000E+00  0.00000000E+00  0.00000000E+00
  0.00000000E+00  0.00000000E+00  0.00000000E+00
  0.00000000E+00  0.00000000E+00  0.00000000E+00
  0.00000000E+00  0.00000000E+00  0.00000000E+00
  0.00000000E+00  0.00000000E+00  0.00000000E+00
  0.00000000E+00  0.00000000E+00  0.00000000E+00
  0.00000000E+00  0.00000000E+00  0.00000000E+00
  0.00000000E+00  0.00000000E+00  0.00000000E+00
  0.00000000E+00  0.00000000E+00  0.00000000E+00
  0.00000000E+00  0.00000000E+00  0.00000000E+00
  0.00000000E+00  0.00000000E+00  0.00000000E+00
  0.00000000E+00  0.00000000E+00  0.00000000E+00
  0.00000000E+00  0.00000000E+00  0.00000000E+00
  0.00000000E+00  0.00000000E+00  0.00000000E+00
  0.00000000E+00  0.00000000E+00  0.00000000E+00
  0.00000000E+00  0.00000000E+00  0.00000000E+00
