B96 C16                                 
    1.000000000000000     
     9.0389669842576570   -0.0174170929871060    4.0022734168330274
     2.5981749174588815    8.6575278820499761    4.0022740497568057
    -0.0234603254337954   -0.0174168875106953    9.8853687601523124
   B    C 
    96    16
Direct
  0.1599482718597162  0.3989399818917598  0.3989399818093427
  0.1599482718597162  0.3989399818917598  0.8989399818093425
  0.1599482718597162  0.8989399818917595  0.3989399818093427
  0.1599482718597162  0.8989399818917595  0.8989399818093425
  0.6599482718597165  0.3989399818917598  0.3989399818093427
  0.6599482718597165  0.3989399818917598  0.8989399818093425
  0.6599482718597165  0.8989399818917595  0.3989399818093427
  0.6599482718597165  0.8989399818917595  0.8989399818093425
  0.3989399818389731  0.3989399818892688  0.1599482718452291
  0.3989399818389731  0.3989399818892688  0.6599482718452292
  0.3989399818389731  0.8989399818892687  0.1599482718452291
  0.3989399818389731  0.8989399818892687  0.6599482718452292
  0.8989399818389728  0.3989399818892688  0.1599482718452291
  0.8989399818389728  0.3989399818892688  0.6599482718452292
  0.8989399818389728  0.8989399818892687  0.1599482718452291
  0.8989399818389728  0.8989399818892687  0.6599482718452292
  0.3989399818435923  0.1599482718851873  0.3989399818114709
  0.3989399818435923  0.1599482718851873  0.8989399818114711
  0.3989399818435923  0.6599482718851871  0.3989399818114709
  0.3989399818435923  0.6599482718851871  0.8989399818114711
  0.8989399818435925  0.1599482718851873  0.3989399818114709
  0.8989399818435925  0.1599482718851873  0.8989399818114711
  0.8989399818435925  0.6599482718851871  0.3989399818114709
  0.8989399818435925  0.6599482718851871  0.8989399818114711
  0.3400517281402841  0.1010600181082403  0.1010600181906574
  0.3400517281402841  0.1010600181082403  0.6010600181906575
  0.3400517281402841  0.6010600181082405  0.1010600181906574
  0.3400517281402841  0.6010600181082405  0.6010600181906575
  0.8400517281402835  0.1010600181082403  0.1010600181906574
  0.8400517281402835  0.1010600181082403  0.6010600181906575
  0.8400517281402835  0.6010600181082405  0.1010600181906574
  0.8400517281402835  0.6010600181082405  0.6010600181906575
  0.1010600181610269  0.1010600181107312  0.3400517281547709
  0.1010600181610269  0.1010600181107312  0.8400517281547708
  0.1010600181610269  0.6010600181107313  0.3400517281547709
  0.1010600181610269  0.6010600181107313  0.8400517281547708
  0.6010600181610272  0.1010600181107312  0.3400517281547709
  0.6010600181610272  0.1010600181107312  0.8400517281547708
  0.6010600181610272  0.6010600181107313  0.3400517281547709
  0.6010600181610272  0.6010600181107313  0.8400517281547708
  0.1010600181564077  0.3400517281148124  0.1010600181885291
  0.1010600181564077  0.3400517281148124  0.6010600181885289
  0.1010600181564077  0.8400517281148129  0.1010600181885291
  0.1010600181564077  0.8400517281148129  0.6010600181885289
  0.6010600181564075  0.3400517281148124  0.1010600181885291
  0.6010600181564075  0.3400517281148124  0.6010600181885289
  0.6010600181564075  0.8400517281148129  0.1010600181885291
  0.6010600181564075  0.8400517281148129  0.6010600181885289
  0.3341877987209349 -0.0017783010797086 -0.0017783011377295
  0.3341877987209349 -0.0017783010797086  0.4982216988622706
  0.3341877987209349  0.4982216989202914 -0.0017783011377295
  0.3341877987209349  0.4982216989202914  0.4982216988622706
  0.8341877987209350 -0.0017783010797086 -0.0017783011377295
  0.8341877987209350 -0.0017783010797086  0.4982216988622706
  0.8341877987209350  0.4982216989202914 -0.0017783011377295
  0.8341877987209350  0.4982216989202914  0.4982216988622706
 -0.0017783011192031 -0.0017783010846353  0.3341877987298272
 -0.0017783011192031 -0.0017783010846353  0.8341877987298277
 -0.0017783011192031  0.4982216989153647  0.3341877987298272
 -0.0017783011192031  0.4982216989153647  0.8341877987298277
  0.4982216988807969 -0.0017783010846353  0.3341877987298272
  0.4982216988807969 -0.0017783010846353  0.8341877987298277
  0.4982216988807969  0.4982216989153647  0.3341877987298272
  0.4982216988807969  0.4982216989153647  0.8341877987298277
 -0.0017783011098252  0.3341877987100370 -0.0017783011332783
 -0.0017783011098252  0.3341877987100370  0.4982216988667217
 -0.0017783011098252  0.8341877987100371 -0.0017783011332783
 -0.0017783011098252  0.8341877987100371  0.4982216988667217
  0.4982216988901748  0.3341877987100370 -0.0017783011332783
  0.4982216988901748  0.3341877987100370  0.4982216988667217
  0.4982216988901748  0.8341877987100371 -0.0017783011332783
  0.4982216988901748  0.8341877987100371  0.4982216988667217
  0.1658122012790650  0.0017783010797087  0.0017783011377296
  0.1658122012790650  0.0017783010797087  0.5017783011377297
  0.1658122012790650  0.5017783010797087  0.0017783011377296
  0.1658122012790650  0.5017783010797087  0.5017783011377297
  0.6658122012790650  0.0017783010797087  0.0017783011377296
  0.6658122012790650  0.0017783010797087  0.5017783011377297
  0.6658122012790650  0.5017783010797087  0.0017783011377296
  0.6658122012790650  0.5017783010797087  0.5017783011377297
  0.0017783011192032  0.0017783010846354  0.1658122012701726
  0.0017783011192032  0.0017783010846354  0.6658122012701723
  0.0017783011192032  0.5017783010846354  0.1658122012701726
  0.0017783011192032  0.5017783010846354  0.6658122012701723
  0.5017783011192032  0.0017783010846354  0.1658122012701726
  0.5017783011192032  0.0017783010846354  0.6658122012701723
  0.5017783011192032  0.5017783010846354  0.1658122012701726
  0.5017783011192032  0.5017783010846354  0.6658122012701723
  0.0017783011098252  0.1658122012899629  0.0017783011332784
  0.0017783011098252  0.1658122012899629  0.5017783011332784
  0.0017783011098252  0.6658122012899629  0.0017783011332784
  0.0017783011098252  0.6658122012899629  0.5017783011332784
  0.5017783011098251  0.1658122012899629  0.0017783011332784
  0.5017783011098251  0.1658122012899629  0.5017783011332784
  0.5017783011098251  0.6658122012899629  0.0017783011332784
  0.5017783011098251  0.6658122012899630  0.5017783011332784
  0.3118950933358215  0.3118950934701337  0.3118950932531985
  0.3118950933358215  0.3118950934701337  0.8118950932531984
  0.3118950933358215  0.8118950934701336  0.3118950932531985
  0.3118950933358215  0.8118950934701336  0.8118950932531984
  0.8118950933358214  0.3118950934701337  0.3118950932531985
  0.8118950933358214  0.3118950934701337  0.8118950932531984
  0.8118950933358214  0.8118950934701336  0.3118950932531985
  0.8118950933358214  0.8118950934701336  0.8118950932531984
  0.1881049066641786  0.1881049065298664  0.1881049067468015
  0.1881049066641786  0.1881049065298664  0.6881049067468016
  0.1881049066641786  0.6881049065298664  0.1881049067468015
  0.1881049066641786  0.6881049065298664  0.6881049067468016
  0.6881049066641786  0.1881049065298664  0.1881049067468015
  0.6881049066641786  0.1881049065298664  0.6881049067468016
  0.6881049066641786  0.6881049065298664  0.1881049067468015
  0.6881049066641786  0.6881049065298664  0.6881049067468016
 
  0.00000000E+00  0.00000000E+00  0.00000000E+00
  0.00000000E+00  0.00000000E+00  0.00000000E+00
  0.00000000E+00  0.00000000E+00  0.00000000E+00
  0.00000000E+00  0.00000000E+00  0.00000000E+00
  0.00000000E+00  0.00000000E+00  0.00000000E+00
  0.00000000E+00  0.00000000E+00  0.00000000E+00
  0.00000000E+00  0.00000000E+00  0.00000000E+00
  0.00000000E+00  0.00000000E+00  0.00000000E+00
  0.00000000E+00  0.00000000E+00  0.00000000E+00
  0.00000000E+00  0.00000000E+00  0.00000000E+00
  0.00000000E+00  0.00000000E+00  0.00000000E+00
  0.00000000E+00  0.00000000E+00  0.00000000E+00
  0.00000000E+00  0.00000000E+00  0.00000000E+00
  0.00000000E+00  0.00000000E+00  0.00000000E+00
  0.00000000E+00  0.00000000E+00  0.00000000E+00
  0.00000000E+00  0.00000000E+00  0.00000000E+00
  0.00000000E+00  0.00000000E+00  0.00000000E+00
  0.00000000E+00  0.00000000E+00  0.00000000E+00
  0.00000000E+00  0.00000000E+00  0.00000000E+00
  0.00000000E+00  0.00000000E+00  0.00000000E+00
  0.00000000E+00  0.00000000E+00  0.00000000E+00
  0.00000000E+00  0.00000000E+00  0.00000000E+00
  0.00000000E+00  0.00000000E+00  0.00000000E+00
  0.00000000E+00  0.00000000E+00  0.00000000E+00
  0.00000000E+00  0.00000000E+00  0.00000000E+00
  0.00000000E+00  0.00000000E+00  0.00000000E+00
  0.00000000E+00  0.00000000E+00  0.00000000E+00
  0.00000000E+00  0.00000000E+00  0.00000000E+00
  0.00000000E+00  0.00000000E+00  0.00000000E+00
  0.00000000E+00  0.00000000E+00  0.00000000E+00
  0.00000000E+00  0.00000000E+00  0.00000000E+00
  0.00000000E+00  0.00000000E+00  0.00000000E+00
  0.00000000E+00  0.00000000E+00  0.00000000E+00
  0.00000000E+00  0.00000000E+00  0.00000000E+00
  0.00000000E+00  0.00000000E+00  0.00000000E+00
  0.00000000E+00  0.00000000E+00  0.00000000E+00
  0.00000000E+00  0.00000000E+00  0.00000000E+00
  0.00000000E+00  0.00000000E+00  0.00000000E+00
  0.00000000E+00  0.00000000E+00  0.00000000E+00
  0.00000000E+00  0.00000000E+00  0.00000000E+00
  0.00000000E+00  0.00000000E+00  0.00000000E+00
  0.00000000E+00  0.00000000E+00  0.00000000E+00
  0.00000000E+00  0.00000000E+00  0.00000000E+00
  0.00000000E+00  0.00000000E+00  0.00000000E+00
  0.00000000E+00  0.00000000E+00  0.00000000E+00
  0.00000000E+00  0.00000000E+00  0.00000000E+00
  0.00000000E+00  0.00000000E+00  0.00000000E+00
  0.00000000E+00  0.00000000E+00  0.00000000E+00
  0.00000000E+00  0.00000000E+00  0.00000000E+00
  0.00000000E+00  0.00000000E+00  0.00000000E+00
  0.00000000E+00  0.00000000E+00  0.00000000E+00
  0.00000000E+00  0.00000000E+00  0.00000000E+00
  0.00000000E+00  0.00000000E+00  0.00000000E+00
  0.00000000E+00  0.00000000E+00  0.00000000E+00
  0.00000000E+00  0.00000000E+00  0.00000000E+00
  0.00000000E+00  0.00000000E+00  0.00000000E+00
  0.00000000E+00  0.00000000E+00  0.00000000E+00
  0.00000000E+00  0.00000000E+00  0.00000000E+00
  0.00000000E+00  0.00000000E+00  0.00000000E+00
  0.00000000E+00  0.00000000E+00  0.00000000E+00
  0.00000000E+00  0.00000000E+00  0.00000000E+00
  0.00000000E+00  0.00000000E+00  0.00000000E+00
  0.00000000E+00  0.00000000E+00  0.00000000E+00
  0.00000000E+00  0.00000000E+00  0.00000000E+00
  0.00000000E+00  0.00000000E+00  0.00000000E+00
  0.00000000E+00  0.00000000E+00  0.00000000E+00
  0.00000000E+00  0.00000000E+00  0.00000000E+00
  0.00000000E+00  0.00000000E+00  0.00000000E+00
  0.00000000E+00  0.00000000E+00  0.00000000E+00
  0.00000000E+00  0.00000000E+00  0.00000000E+00
  0.00000000E+00  0.00000000E+00  0.00000000E+00
  0.00000000E+00  0.00000000E+00  0.00000000E+00
  0.00000000E+00  0.00000000E+00  0.00000000E+00
  0.00000000E+00  0.00000000E+00  0.00000000E+00
  0.00000000E+00  0.00000000E+00  0.00000000E+00
  0.00000000E+00  0.00000000E+00  0.00000000E+00
  0.00000000E+00  0.00000000E+00  0.00000000E+00
  0.00000000E+00  0.00000000E+00  0.00000000E+00
  0.00000000E+00  0.00000000E+00  0.00000000E+00
  0.00000000E+00  0.00000000E+00  0.00000000E+00
  0.00000000E+00  0.00000000E+00  0.00000000E+00
  0.00000000E+00  0.00000000E+00  0.00000000E+00
  0.00000000E+00  0.00000000E+00  0.00000000E+00
  0.00000000E+00  0.00000000E+00  0.00000000E+00
  0.00000000E+00  0.00000000E+00  0.00000000E+00
  0.00000000E+00  0.00000000E+00  0.00000000E+00
  0.00000000E+00  0.00000000E+00  0.00000000E+00
  0.00000000E+00  0.00000000E+00  0.00000000E+00
  0.00000000E+00  0.00000000E+00  0.00000000E+00
  0.00000000E+00  0.00000000E+00  0.00000000E+00
  0.00000000E+00  0.00000000E+00  0.00000000E+00
  0.00000000E+00  0.00000000E+00  0.00000000E+00
  0.00000000E+00  0.00000000E+00  0.00000000E+00
  0.00000000E+00  0.00000000E+00  0.00000000E+00
  0.00000000E+00  0.00000000E+00  0.00000000E+00
  0.00000000E+00  0.00000000E+00  0.00000000E+00
  0.00000000E+00  0.00000000E+00  0.00000000E+00
  0.00000000E+00  0.00000000E+00  0.00000000E+00
  0.00000000E+00  0.00000000E+00  0.00000000E+00
  0.00000000E+00  0.00000000E+00  0.00000000E+00
  0.00000000E+00  0.00000000E+00  0.00000000E+00
  0.00000000E+00  0.00000000E+00  0.00000000E+00
  0.00000000E+00  0.00000000E+00  0.00000000E+00
  0.00000000E+00  0.00000000E+00  0.00000000E+00
  0.00000000E+00  0.00000000E+00  0.00000000E+00
  0.00000000E+00  0.00000000E+00  0.00000000E+00
  0.00000000E+00  0.00000000E+00  0.00000000E+00
  0.00000000E+00  0.00000000E+00  0.00000000E+00
  0.00000000E+00  0.00000000E+00  0.00000000E+00
  0.00000000E+00  0.00000000E+00  0.00000000E+00
  0.00000000E+00  0.00000000E+00  0.00000000E+00
  0.00000000E+00  0.00000000E+00  0.00000000E+00
