B96 C24                                 
    1.000000000000000     
     9.2390869999999996    0.0501890000000000    4.1911430000000003
     2.6767470000000002    9.0995699999999999    4.2858470000000004
    -0.0514440000000000    0.0720330000000000   10.4080630000000003
   B    C 
    96    24
Direct
  0.1704113771997141  0.4026401493129290  0.3937180226633650
  0.1706008587725631  0.3905142476415419  0.9124851688697135
  0.1492400468697232  0.9156868999059362  0.4130687830688053
  0.1495222601082966  0.8999613462560104  0.9239368335346637
  0.6644998115424015  0.4038807643880403  0.3820267031998056
  0.6618929782351752  0.4146132778080954  0.9028830230073192
  0.6518542136913804  0.8974920276157241  0.4223439622686525
  0.6554382907908189  0.8889758898589299  0.9288799805653756
  0.4116454935159032  0.4062975451196844  0.1474271161875510
  0.3951986544246971  0.3998775018460619  0.6789735622898221
  0.3938568269982580  0.8839697085873669  0.1962089291473316
  0.4016095857183833  0.9011192931320585  0.6566961002528555
  0.8907784038328900  0.3900593742913598  0.1644470836309260
  0.9036307238955678  0.4137291343765261  0.6400792755443429
  0.9098335880716293  0.8959498532404943  0.1854720707597779
  0.8847893860920650  0.8962347270685175  0.6657563442973186
  0.4112271612332770  0.1678558132699756  0.3803796557935040
  0.3915087903868862  0.1634297883651966  0.8876277657653387
  0.3867650768021003  0.6434784512037202  0.4007114210642389
  0.3909589999212306  0.6666844634046230  0.8700377718458944
  0.8769519147834925  0.1668767846675576  0.4310511075694392
  0.9078202762299903  0.1710760737125425  0.9046309202405154
  0.8842556319527084  0.6789890624991761  0.3930123446536440
  0.9096260033991610  0.6379143504913312  0.9078382540996747
  0.3196785368564487  0.0800789459358930  0.1018235005760944
  0.3339705709178867  0.1027734213989672  0.5757867785129479
  0.3657704474823785  0.6001926128481555  0.1018367248462895
  0.3374760818120456  0.6088576923645209  0.6326547987762717
  0.8436146264646776  0.0903387606907186  0.0987055702321331
  0.8308342055124670  0.0863163014794396  0.6248935150212894
  0.8507176331552927  0.5819598953577044  0.0949185764806610
  0.8409723543844829  0.5918804864637861  0.5845028250859543
  0.0906985338585834  0.0945914435949302  0.3624666896705971
  0.1030251550955573  0.1228019775480885  0.8399206602550027
  0.1324320819181492  0.5772866795203013  0.3293332086132513
  0.1219263962503331  0.5918323774918832  0.8476724646705786
  0.5929593799073202  0.0928790358555713  0.3649686412910749
  0.5918127493356420  0.1017024218314806  0.8544842162370541
  0.5941238033514540  0.6043589105964926  0.3244270040302301
  0.5837857898426296  0.6012776132665587  0.8317379623468411
  0.1188529307448085  0.3256754218698587  0.0904823069010198
  0.1048943595937805  0.3474901268508694  0.5987309301477491
  0.0949172741805831  0.8103001492624440  0.1260123961589193
  0.0827441429976346  0.8506220631326525  0.6126936589947755
  0.6155209072590713  0.3447106480638408  0.0843903352502428
  0.5843000586121139  0.3234775165436152  0.5870654843138925
  0.5965732657245991  0.8371001989605096  0.1117176152116171
  0.5961216710454665  0.8477686446151296  0.6057108481413334
  0.4711462879046835  0.4996460637500145  0.3255504098566008
  0.5144250970010510  0.4849292630311744  0.8332694927626312
  0.4991017002534068  0.9938711382339394  0.3384407405020176
  0.4938424266307238  0.9806524055206143  0.8521873196157155
  0.9995812532822621  0.5037115454217335  0.3274375417725987
  0.0334079912849829  0.4832582527249708  0.8175008817610269
  0.9739901301097961  0.0089518487086914  0.3556889096581234
  0.0038776361567532  0.0012386661748502  0.8373920401205266
  0.4888372400358669  0.3352758996463987  0.4828152846912584
  0.4937855275230690  0.3422045213353574  0.9966882441266398
  0.5035464037369713  0.8393999705386885  0.4949019462923170
  0.4704705042367298  0.8427112070141478  0.0014685704624357
  0.0075159270377948  0.3291177977431909  0.4824312126428365
  0.0075565552434342  0.3381977319756512  0.9892059052419071
  0.9856974842680930  0.8226045400294055  0.5031081451202555
  0.9765113161621242  0.8326779489478990  0.0157766877563984
  0.1656194103289340  0.9888883912215491  0.0221080175112109
  0.1767190668257133  0.0103733630626269  0.5053223512062539
  0.1711910985172479  0.5096271808908081  0.9945711918507963
  0.1561415039662825  0.5219220231172879  0.4888134670530589
  0.6772322034706287  0.0123379996106948  0.9932609578222065
  0.6695903831754209  0.9917154335662860  0.5141882972510586
  0.6884041565143211  0.5115264203828886  0.9927183700391596
  0.6873641735215876  0.5124224884078227  0.4701487397053098
  0.9816681715138169  0.0192378090651562  0.1826817284787039
  0.0213589247448550  0.0008589020250022  0.6753574989188811
  0.0109251999106157  0.5046426130933654  0.1626891269185710
  0.9860676036518893  0.5262292161712978  0.6595459105367020
  0.5023771990969697  0.0054776301633676  0.1762034472646239
  0.5121974119826689  0.9960233738199139  0.6791842258709446
  0.5283859021945885  0.5103645393766025  0.1469205677292584
  0.5163326367983657  0.4822509778149504  0.6624324288636437
  0.0062711911606698  0.1745379787785520  0.0089329402224760
  0.0010532590835822  0.1656157583047350  0.5159278874309385
  0.0003105940724937  0.6559616569417218  0.0171762168484931
  0.9925321326802018  0.6632572642252156  0.4927792604681190
  0.5040572993266004  0.1742079327763572  0.0040603268961785
  0.4941263065033315  0.1514844191253471  0.4947092663196475
  0.4827028870780724  0.6942028686102717  0.9754296218135264
  0.5033136928645546  0.6628836496273156  0.4821034239523204
  0.2347601210411330  0.2729255370757370  0.2322376192501603
  0.2555864441667231  0.2356536611853697  0.7493017135899147
  0.2974177332069556  0.7311382031720007  0.2416005613882499
  0.1681410745632813  0.8070553278465409  0.7644204265808251
  0.8335484667581093  0.2244381405481835  0.1845495055247662
  0.7511650283977180  0.2850335625007041  0.7135966257830803
  0.7324565600083105  0.7480196679531735  0.2489597043535198
  0.7726353397624639  0.7059525436786730  0.7589837280873717
  0.3288730012023481  0.5155669275268950  0.4795741347378881
  0.3529388736587364  0.4953994675526099  0.9652586494834013
  0.3377501833747770  0.9818400514757563  0.5066592990838491
  0.3303022122551062  0.9821564436281547  0.0011487061709126
  0.8483409337161142  0.4949897730507529  0.4821453913434217
  0.8534802400871633  0.4874398445784707  0.9965894030907250
  0.8180664740725025  0.0058955293304289  0.5052733621904222
  0.8508086787227402  0.9830869112285120  0.0024078761322981
  0.3104262832393497  0.3308233492491547  0.2827132138767915
  0.2941590962581941  0.3078494991376713  0.8118897111355040
  0.2866236033369522  0.7993147295663020  0.3362753593398425
  0.2756001220496140  0.8277911190978324  0.8152543695715893
  0.8088693052677187  0.3122886514353708  0.2995513226049576
  0.7951272391343500  0.3247294045545606  0.8070046175530197
  0.7828913908524500  0.8324843324532580  0.3137447407716138
  0.8129649737281152  0.8000235037153218  0.8195183226187122
  0.1945654313564799  0.1678922521703806  0.2153545477925673
  0.1946452317913905  0.1916447760077805  0.6855300301388007
  0.2133512809415084  0.6816914070865117  0.1995306623301708
  0.1660901378371011  0.7001462293170669  0.7050052297109374
  0.7105862267848646  0.1971213214612346  0.1785621544095735
  0.6753591518725086  0.1976552245303003  0.7024743069965937
  0.6994522236335633  0.6907205381916809  0.1656303860952883
  0.7061270799199458  0.6809522511148215  0.6826037354672185
 
 -0.14142215E-01  0.10872804E-01  0.12758460E-01
  0.90573339E-03  0.66954843E-02  0.31178288E-01
  0.74141385E-02  0.12154841E-01 -0.20478301E-01
 -0.40814355E-02 -0.10853190E-02  0.65468084E-02
  0.34430239E-02 -0.63236335E-02 -0.19503089E-01
 -0.64514082E-02  0.17854489E-01  0.11019634E-01
  0.18626973E-01  0.80661534E-02 -0.12898192E-01
  0.26340629E-01 -0.11225352E-02 -0.19539869E-01
  0.15189082E-01 -0.48538234E-02  0.41681870E-02
 -0.17237678E-01 -0.78337073E-02 -0.54205466E-02
  0.32428456E-02 -0.92621502E-03 -0.18552487E-01
 -0.16883862E-01  0.51722378E-02 -0.18752979E-01
 -0.77519726E-02  0.33556751E-01 -0.19194635E-01
 -0.23695558E-02  0.71865227E-02  0.10856939E-01
  0.11269568E-01  0.21794371E-01 -0.20511931E-01
  0.10854252E-01  0.80189072E-03 -0.18253548E-01
  0.67647679E-02 -0.16754034E-01  0.81700607E-02
 -0.50140305E-02 -0.15993935E-01  0.56623450E-02
 -0.74454659E-02  0.24177727E-02 -0.11429945E-01
  0.34447978E-02  0.19165158E-01  0.72446535E-02
 -0.13073462E-01  0.80903283E-02  0.15616991E-01
  0.53090973E-02  0.12323076E-01  0.61065448E-02
  0.40687082E-02 -0.15474642E-02  0.12925622E-01
  0.52565032E-02  0.10370277E-01  0.11094730E-01
  0.13452511E-01 -0.57408653E-02 -0.38359526E-02
  0.35907487E-02  0.10813700E-01 -0.30317809E-02
 -0.23688613E-01 -0.31491346E-01 -0.13428820E-01
 -0.46508737E-02  0.90159877E-02 -0.34005470E-02
  0.24401275E-01  0.10086970E-01 -0.37271512E-02
 -0.60019698E-02  0.43163585E-02  0.44350283E-02
 -0.28807495E-02  0.15694303E-01  0.12767294E-01
 -0.25250001E-02 -0.83861391E-02 -0.43187597E-02
 -0.20561100E-01 -0.15792296E-01 -0.17061735E-01
 -0.21315183E-01  0.22982888E-01 -0.12711757E-01
 -0.10652868E-01  0.31473714E-01 -0.99861959E-03
  0.89357320E-02 -0.97442000E-02  0.19541984E-01
 -0.13877288E-01  0.27318653E-02  0.65669497E-02
  0.14868796E-02 -0.23783512E-02 -0.14356316E-01
 -0.11597204E-02 -0.23430302E-02 -0.49791951E-03
 -0.28789419E-02 -0.89471556E-02  0.28980984E-01
 -0.33806505E-01 -0.19022565E-02 -0.53041408E-02
 -0.23167188E-01  0.20432382E-01 -0.77185503E-02
 -0.13859554E-01  0.11682768E-01  0.15728481E-01
  0.91921568E-02  0.38558411E-02  0.13457240E-01
 -0.72156235E-02 -0.13533290E-01  0.99210415E-02
 -0.88508770E-02 -0.15364467E-01  0.16898344E-02
  0.21561822E-01 -0.50707378E-02 -0.32241085E-01
 -0.14431247E-01  0.74060316E-02 -0.13098190E-01
 -0.25354921E-01 -0.29815589E-01 -0.31086209E-01
 -0.12704461E-01  0.11078077E-01  0.95678867E-02
  0.16287377E-01  0.13123429E-01 -0.19143275E-01
  0.13566228E-01 -0.86127291E-02  0.22443708E-01
  0.46066532E-03 -0.16088889E-01  0.62746183E-02
  0.25283130E-01  0.16067893E-01  0.13636781E-01
  0.12735918E-01 -0.23176377E-01  0.82724200E-02
  0.17636217E-01  0.70971951E-02 -0.15125470E-01
 -0.13161336E-01 -0.11259777E-02 -0.69995811E-02
  0.17328239E-01  0.83555228E-02  0.50447940E-02
  0.78572316E-02  0.23022223E-02 -0.23859056E-01
  0.12540474E-01 -0.13729988E-01  0.68693595E-02
 -0.22533837E-01 -0.37215160E-02 -0.19241421E-03
  0.25583872E-02  0.26291064E-01  0.22926040E-01
  0.26819399E-01  0.68794988E-02 -0.48006582E-02
  0.94993544E-02 -0.63794501E-02  0.33480678E-02
  0.25655862E-02 -0.57432418E-02  0.17140326E-01
 -0.11540800E-01  0.48278993E-02  0.22534614E-01
 -0.26471926E-01 -0.26917401E-01 -0.26139995E-02
  0.38011454E-02 -0.18534925E-01 -0.12129242E-01
  0.87071504E-02 -0.22067491E-02  0.93122103E-02
  0.65024809E-02  0.31840982E-02  0.48542807E-02
  0.57341384E-02  0.18777317E-01 -0.33162832E-02
 -0.19131967E-02 -0.10640923E-01  0.47814974E-02
  0.41567787E-02 -0.27809081E-01 -0.14439470E-01
  0.52244759E-02  0.49591055E-02  0.39076263E-02
  0.31893701E-02 -0.66784516E-02  0.18961942E-01
  0.27264080E-01  0.94345925E-02 -0.40172449E-02
  0.33415283E-01  0.30818041E-03 -0.45932205E-02
  0.32121362E-02  0.62797926E-02  0.17081103E-01
 -0.10051349E-01  0.66706268E-02 -0.25661634E-02
 -0.57107630E-02 -0.10054503E-01 -0.24011277E-02
  0.21203197E-02  0.18635019E-01  0.15058998E-01
 -0.42436405E-02  0.62766837E-02 -0.32267830E-02
 -0.21413960E-02 -0.55708807E-02  0.13189837E-01
 -0.16351655E-01 -0.21141048E-01  0.86927333E-02
  0.17933668E-01 -0.54232173E-02  0.97004156E-04
  0.20417634E-01 -0.74200806E-02  0.24344817E-01
 -0.62199859E-02 -0.93442296E-02  0.28540006E-01
 -0.27909007E-01 -0.62412351E-02 -0.12651704E-02
  0.71146332E-02 -0.19951469E-01 -0.79454795E-02
 -0.15001992E-01  0.11782651E-01  0.21952142E-01
 -0.10024953E-01  0.20836119E-01 -0.31627554E-02
  0.28982679E-01 -0.58218139E-02 -0.25295525E-01
 -0.18518851E-02  0.12753711E-01 -0.13255990E-01
  0.18692111E-03 -0.10018432E-01 -0.78657793E-02
  0.16583730E-01  0.22440012E-02  0.46054036E-02
  0.34360219E-01 -0.69228933E-03 -0.69165571E-03
 -0.23393604E-01 -0.12200029E-01 -0.26758778E-02
  0.35257215E-02 -0.15519158E-01  0.73694234E-02
 -0.14746171E-01 -0.34946398E-01 -0.27489170E-02
  0.16178614E-01  0.42796182E-02  0.11296962E-01
 -0.31216729E-01 -0.28661352E-02  0.16146384E-01
 -0.10569811E-02  0.10009216E-01  0.40498195E-02
  0.19898697E-02  0.56721516E-02 -0.13480389E-01
 -0.26734674E-02  0.21866268E-01  0.14483012E-03
 -0.11661275E-02 -0.27433716E-01  0.14614095E-02
 -0.12079950E-01 -0.18734071E-01 -0.82227430E-02
  0.14151741E-01  0.21116638E-02 -0.98462797E-02
  0.13809376E-01 -0.15714882E-01 -0.39215610E-02
 -0.13799095E-01  0.32360972E-02 -0.37297155E-02
 -0.17744124E-01  0.16947830E-02  0.63069356E-02
 -0.19321270E-01 -0.20429683E-02  0.35211311E-02
  0.11632369E-01  0.20252147E-01 -0.13417623E-01
 -0.26288435E-02 -0.52566336E-02 -0.33679011E-02
  0.30143293E-01 -0.76004465E-02 -0.59196054E-02
 -0.16615104E-01  0.17438919E-02 -0.39946241E-02
 -0.18345756E-02 -0.22652895E-01  0.51432532E-02
 -0.11511707E-01 -0.47783737E-02 -0.88942101E-02
 -0.17161161E-02  0.42574369E-02 -0.58654454E-02
  0.28099574E-02  0.10894543E-01 -0.27252405E-02
  0.55843074E-02  0.25055979E-01 -0.22888677E-02
 
            1
   0.5000000000000000     
  0.59442881E+00 -0.10897896E-02  0.24511125E-17  0.00000000E+00
  0.16947729E+00  0.40323685E+00  0.39446136E+00
  0.17055398E+00  0.39087157E+00  0.91385470E+00
  0.14943755E+00  0.91636432E+00  0.41172653E+00
  0.14932165E+00  0.89989949E+00  0.92435760E+00
  0.66478011E+00  0.40353895E+00  0.38111766E+00
  0.66126158E+00  0.41559482E+00  0.90326247E+00
  0.65272617E+00  0.89793958E+00  0.42118892E+00
  0.65687222E+00  0.88891811E+00  0.92738766E+00
  0.41254581E+00  0.40602627E+00  0.14737652E+00
  0.39439110E+00  0.39944960E+00  0.67921455E+00
  0.39403992E+00  0.88392530E+00  0.19526223E+00
  0.40060706E+00  0.90141392E+00  0.65607759E+00
  0.88981292E+00  0.39191885E+00  0.16314806E+00
  0.90339129E+00  0.41412173E+00  0.64053559E+00
  0.91008447E+00  0.89715856E+00  0.18388794E+00
  0.88535609E+00  0.89628457E+00  0.66463072E+00
  0.41186506E+00  0.16692760E+00  0.38089749E+00
  0.39149707E+00  0.16254595E+00  0.88826845E+00
  0.38631959E+00  0.64361714E+00  0.40028461E+00
  0.39083984E+00  0.66773850E+00  0.86999975E+00
  0.87612138E+00  0.16731876E+00  0.43195378E+00
  0.90791139E+00  0.17175287E+00  0.90460889E+00
  0.88450524E+00  0.67889824E+00  0.39357017E+00
  0.90974755E+00  0.63848152E+00  0.90808875E+00
  0.32049625E+00  0.79762021E-01  0.10144045E+00
  0.33398964E+00  0.10337066E+00  0.57538752E+00
  0.36499154E+00  0.59846352E+00  0.10221727E+00
  0.33707858E+00  0.60935695E+00  0.63244592E+00
  0.84476958E+00  0.90893553E-01  0.97832987E-01
  0.83044220E+00  0.86553474E-01  0.62516676E+00
  0.85031455E+00  0.58282115E+00  0.95339577E-01
  0.84096907E+00  0.59141984E+00  0.58448636E+00
  0.89834916E-01  0.93729383E-01  0.36234979E+00
  0.10149921E+00  0.12407738E+00  0.83939928E+00
  0.13135022E+00  0.57902465E+00  0.32900522E+00
  0.12257324E+00  0.59128624E+00  0.84857567E+00
  0.59216812E+00  0.93028979E-01  0.36554100E+00
  0.59192589E+00  0.10157652E+00  0.85380083E+00
  0.59409861E+00  0.60422999E+00  0.32446631E+00
  0.58378500E+00  0.60077333E+00  0.83333817E+00
  0.11705481E+00  0.32557678E+00  0.90992188E-01
  0.10331123E+00  0.34862315E+00  0.59853107E+00
  0.93986568E-01  0.81094036E+00  0.12687914E+00
  0.83183945E-01  0.85082846E+00  0.61307805E+00
  0.61535229E+00  0.34396120E+00  0.85243445E-01
  0.58406940E+00  0.32263041E+00  0.58758837E+00
  0.59780763E+00  0.83683008E+00  0.10978294E+00
  0.59521791E+00  0.84818403E+00  0.60527450E+00
  0.47024373E+00  0.49801638E+00  0.32509156E+00
  0.51356419E+00  0.48553833E+00  0.83382500E+00
  0.49976359E+00  0.99460036E+00  0.33695429E+00
  0.49472238E+00  0.98016699E+00  0.85311105E+00
  0.99986711E+00  0.50282155E+00  0.32799035E+00
  0.34521033E-01  0.48413623E+00  0.81734625E+00
  0.97505394E+00  0.76685558E-02  0.35618637E+00
  0.47107905E-02  0.16337407E-02  0.83616724E+00
  0.48814154E+00  0.33521812E+00  0.48278297E+00
  0.49458945E+00  0.34266134E+00  0.99641876E+00
  0.50392493E+00  0.83953510E+00  0.49354769E+00
  0.47137139E+00  0.84194958E+00  0.17494238E-02
  0.63580851E-02  0.32891542E+00  0.48297155E+00
  0.72808960E-02  0.33963899E+00  0.98982479E+00
  0.98703424E+00  0.82298250E+00  0.50218360E+00
  0.97712840E+00  0.83232355E+00  0.15834974E-01
  0.16585683E+00  0.98856469E+00  0.22969123E-01
  0.17602640E+00  0.10632532E-01  0.50657711E+00
  0.17019237E+00  0.50814663E+00  0.99545745E+00
  0.15664021E+00  0.52090370E+00  0.48844929E+00
  0.67774167E+00  0.12211605E-01  0.99355521E+00
  0.66989239E+00  0.99188841E+00  0.51422865E+00
  0.68841093E+00  0.51256281E+00  0.99212956E+00
  0.68743364E+00  0.51183390E+00  0.47059284E+00
  0.98233428E+00  0.17708722E-01  0.18234948E+00
  0.21562994E-01  0.11303169E-02  0.67535128E+00
  0.11212048E-01  0.50426654E+00  0.16363940E+00
  0.98738762E+00  0.52674777E+00  0.65860785E+00
  0.50417606E+00  0.54921706E-02  0.17525244E+00
  0.51227650E+00  0.99636286E+00  0.67983315E+00
  0.52773461E+00  0.51073477E+00  0.14690710E+00
  0.51618476E+00  0.48169796E+00  0.66260435E+00
  0.60919395E-02  0.17555995E+00  0.93077219E-02
  0.72185525E-03  0.16596378E+00  0.51576302E+00
  0.28941629E-03  0.65564957E+00  0.17946893E-01
  0.99199168E+00  0.66208976E+00  0.49389524E+00
  0.50511352E+00  0.17390646E+00  0.37638047E-02
  0.49535802E+00  0.15106320E+00  0.49555624E+00
  0.48252778E+00  0.69367727E+00  0.97708762E+00
  0.50190550E+00  0.66254336E+00  0.48274982E+00
  0.23546222E+00  0.27182706E+00  0.23202553E+00
  0.25459476E+00  0.23629715E+00  0.75049065E+00
  0.29653996E+00  0.73229010E+00  0.24132776E+00
  0.16979112E+00  0.80674018E+00  0.76267057E+00
  0.83323840E+00  0.22514700E+00  0.18374566E+00
  0.75133318E+00  0.28448388E+00  0.71337739E+00
  0.73331831E+00  0.74813960E+00  0.24878455E+00
  0.77450281E+00  0.70591028E+00  0.75821591E+00
  0.32780404E+00  0.51489789E+00  0.48015154E+00
  0.35338161E+00  0.49454009E+00  0.96578827E+00
  0.33751404E+00  0.97991515E+00  0.50741497E+00
  0.33111189E+00  0.98238617E+00  0.12707703E-02
  0.84670636E+00  0.49482943E+00  0.48364530E+00
  0.85326378E+00  0.48799059E+00  0.99664433E+00
  0.81807773E+00  0.62133369E-02  0.50449037E+00
  0.85031282E+00  0.98429344E+00  0.21176781E-02
  0.31080476E+00  0.32930956E+00  0.28325436E+00
  0.29380437E+00  0.30682071E+00  0.81206117E+00
  0.28735061E+00  0.79943320E+00  0.33546081E+00
  0.27659739E+00  0.82692397E+00  0.81502147E+00
  0.80807027E+00  0.31247034E+00  0.29961909E+00
  0.79414361E+00  0.32482272E+00  0.80766526E+00
  0.78188156E+00  0.83237272E+00  0.31436649E+00
  0.81326293E+00  0.80114437E+00  0.81829221E+00
  0.19450660E+00  0.16760389E+00  0.21533519E+00
  0.19639390E+00  0.19122396E+00  0.68471478E+00
  0.21242397E+00  0.68179123E+00  0.19967107E+00
  0.16635705E+00  0.69889485E+00  0.70566012E+00
  0.71003764E+00  0.19686258E+00  0.17846233E+00
  0.67519578E+00  0.19789255E+00  0.70216060E+00
  0.69942792E+00  0.69132222E+00  0.16526149E+00
  0.70602523E+00  0.68233463E+00  0.68196555E+00
 -0.91377438E-03  0.60634409E-03  0.72132619E-03
 -0.29911832E-04  0.32962127E-03  0.13829852E-02
  0.20137756E-03  0.72191545E-03 -0.13585672E-02
 -0.18760419E-03 -0.80441482E-04  0.41005573E-03
  0.31448783E-03 -0.35110809E-03 -0.92859821E-03
 -0.63465675E-03  0.98270675E-03  0.38420817E-03
  0.87508751E-03  0.41219656E-03 -0.11345583E-02
  0.14273949E-02 -0.72704999E-04 -0.14524147E-02
  0.87942661E-03 -0.29988880E-03 -0.22308873E-04
 -0.81300389E-03 -0.44069941E-03  0.28076380E-03
  0.16639086E-03 -0.63449500E-04 -0.91321943E-03
 -0.97561778E-03  0.28733975E-03 -0.63885744E-03
 -0.10251138E-02  0.18188669E-02 -0.12465640E-02
 -0.24590852E-03  0.43149951E-03  0.43099305E-03
  0.27230992E-03  0.12012769E-02 -0.15727761E-02
  0.55208835E-03  0.49163003E-04 -0.11173342E-02
  0.66368594E-03 -0.93157767E-03  0.51313450E-03
 -0.43281902E-04 -0.83650252E-03  0.59484454E-03
 -0.46986261E-03  0.10743692E-03 -0.43274630E-03
 -0.11817761E-03  0.10677062E-02 -0.72856994E-04
 -0.84936748E-03  0.44435016E-03  0.93268624E-03
  0.10301533E-03  0.67357999E-03 -0.93785586E-06
  0.22620278E-03 -0.61207056E-04  0.55242191E-03
  0.10824595E-03  0.55038807E-03  0.26514545E-03
  0.78765836E-03 -0.31725139E-03 -0.39153881E-03
  0.18546913E-04  0.61025423E-03 -0.42294608E-03
 -0.75440247E-03 -0.17274492E-02  0.39913823E-03
 -0.40445431E-03  0.50251870E-03 -0.18298274E-03
  0.11595441E-02  0.54854548E-03 -0.85794229E-03
 -0.38699482E-03  0.21424423E-03  0.28680606E-03
 -0.39302024E-03  0.85074978E-03  0.41563387E-03
  0.11012393E-04 -0.48480833E-03 -0.92368608E-05
 -0.84770401E-03 -0.87753989E-03 -0.11265460E-03
 -0.15045072E-02  0.13225619E-02 -0.56138497E-03
 -0.10278514E-02  0.16939269E-02 -0.32895312E-03
  0.70617442E-03 -0.54049679E-03  0.89169455E-03
 -0.84462837E-03  0.14848638E-03  0.65112105E-03
  0.11465924E-03 -0.12245454E-03 -0.67913223E-03
 -0.32531584E-04 -0.11197257E-03  0.27185872E-04
 -0.41670774E-04 -0.53038929E-03  0.16095379E-02
 -0.17651868E-02 -0.11333341E-03  0.47318669E-03
 -0.15671581E-02  0.11154863E-02 -0.17809040E-03
 -0.94022487E-03  0.60438182E-03  0.89621220E-03
  0.43432994E-03  0.21544947E-03  0.40438953E-03
 -0.15423969E-03 -0.74825489E-03  0.82698378E-03
 -0.24221086E-03 -0.86317744E-03  0.51222937E-03
  0.12573072E-02 -0.30715382E-03 -0.19148604E-02
 -0.91702963E-03  0.45005621E-03 -0.45163996E-03
 -0.93747755E-03 -0.16205749E-02 -0.46416512E-03
 -0.83047158E-03  0.59486701E-03  0.58445836E-03
  0.67232550E-03  0.71586827E-03 -0.15020192E-02
  0.87982547E-03 -0.52844440E-03  0.94784355E-03
  0.28078608E-03 -0.88511116E-03  0.54584298E-03
  0.11509598E-02  0.85227456E-03 -0.17934266E-03
  0.10545787E-02 -0.12694069E-02  0.49185031E-03
  0.84832692E-03  0.38708705E-03 -0.12629167E-02
 -0.68292607E-03 -0.60432552E-04 -0.32265548E-04
  0.79691253E-03  0.45794383E-03 -0.26594047E-03
  0.41125183E-03  0.16321807E-03 -0.13689633E-02
  0.87580819E-03 -0.73893309E-03  0.25751933E-03
 -0.11497870E-02 -0.23888238E-03  0.52631363E-03
 -0.25666933E-03  0.14309505E-02  0.60359004E-03
  0.13363707E-02  0.33490078E-03 -0.92265907E-03
  0.58719213E-03 -0.34590323E-03  0.61793098E-04
  0.25112992E-03 -0.34051257E-03  0.86780385E-03
 -0.66247809E-03  0.27484966E-03  0.12443918E-02
 -0.10342803E-02 -0.14454051E-02  0.85710395E-03
  0.46242482E-03 -0.98061113E-03 -0.39517591E-03
  0.52079398E-03 -0.11102111E-03  0.26424819E-03
  0.32955907E-03  0.14661636E-03  0.37621326E-04
  0.35589637E-04  0.10441834E-02 -0.59583391E-03
  0.10207445E-03 -0.57040667E-03  0.42054206E-03
  0.62853994E-03 -0.15177102E-02 -0.32301797E-03
  0.22683067E-03  0.26651298E-03  0.94309449E-05
  0.28595899E-03 -0.35849387E-03  0.95008060E-03
  0.12781020E-02  0.55405616E-03 -0.92374302E-03
  0.17945919E-02  0.23457105E-04 -0.92045118E-03
  0.93278607E-04  0.33993207E-03  0.67447754E-03
 -0.63756165E-03  0.37656612E-03 -0.43457216E-05
 -0.15047981E-03 -0.57445939E-03  0.18530517E-03
 -0.18079346E-03  0.10557151E-02  0.37416915E-03
 -0.33207127E-03  0.37202686E-03 -0.16761482E-03
 -0.29362069E-04 -0.31983641E-03  0.79172376E-03
 -0.55095091E-03 -0.11803221E-02  0.11221052E-02
  0.10637882E-02 -0.27156461E-03 -0.30560460E-03
  0.12395838E-02 -0.46841499E-03  0.79793141E-03
 -0.20127852E-03 -0.48926295E-03  0.16494836E-02
 -0.14116856E-02 -0.34973034E-03  0.61827582E-03
  0.68709373E-03 -0.10980417E-02 -0.21638200E-03
 -0.10027277E-02  0.62801515E-03  0.11836092E-02
 -0.86681368E-03  0.11438800E-02 -0.27021306E-03
  0.16318071E-02 -0.31683956E-03 -0.17386536E-02
 -0.31133367E-03  0.70670996E-03 -0.83982224E-03
  0.18259318E-03 -0.53843561E-03 -0.24986678E-03
  0.85707337E-03  0.94289650E-04 -0.18887449E-03
  0.18592206E-02 -0.83597516E-04 -0.79315293E-03
 -0.10489486E-02 -0.61837063E-03  0.53961075E-03
  0.45981461E-03 -0.86884773E-03  0.49782446E-03
 -0.25715654E-03 -0.19397560E-02  0.77042836E-03
  0.81377002E-03  0.20071847E-03  0.11255333E-03
 -0.16292007E-02 -0.17027288E-03  0.15036116E-02
 -0.21043786E-03  0.54254985E-03  0.59098100E-04
 -0.24893485E-04  0.32545008E-03 -0.78980803E-03
 -0.46906761E-03  0.11731909E-02 -0.27585365E-03
  0.37773887E-03 -0.14712829E-02  0.51193949E-03
 -0.38097174E-03 -0.10244136E-02  0.18511795E-03
  0.72724058E-03  0.75009717E-04 -0.80706478E-03
  0.94982694E-03 -0.83815668E-03 -0.19783970E-03
 -0.79786494E-03  0.23677834E-03  0.28484739E-04
 -0.10233452E-02  0.11709541E-03  0.67779232E-03
 -0.10365131E-02 -0.56070297E-04  0.64434355E-03
  0.32628347E-03  0.11462980E-02 -0.12362593E-02
 -0.49810995E-04 -0.30099292E-03  0.18680887E-04
  0.17471077E-02 -0.41405363E-03 -0.78079908E-03
 -0.92234102E-03  0.10672435E-03  0.16633621E-03
  0.21505350E-03 -0.12476540E-02  0.68701748E-03
 -0.50080394E-03 -0.24843231E-03 -0.11183569E-03
 -0.18420697E-03  0.25185031E-03 -0.29019306E-03
 -0.34787537E-04  0.64315872E-03 -0.39935301E-03
 -0.56458272E-04  0.13724912E-02 -0.62820787E-03
  0.00000000E+00  0.00000000E+00  0.00000000E+00
  0.00000000E+00  0.00000000E+00  0.00000000E+00
  0.00000000E+00  0.00000000E+00  0.00000000E+00
  0.00000000E+00  0.00000000E+00  0.00000000E+00
  0.00000000E+00  0.00000000E+00  0.00000000E+00
  0.00000000E+00  0.00000000E+00  0.00000000E+00
  0.00000000E+00  0.00000000E+00  0.00000000E+00
  0.00000000E+00  0.00000000E+00  0.00000000E+00
  0.00000000E+00  0.00000000E+00  0.00000000E+00
  0.00000000E+00  0.00000000E+00  0.00000000E+00
  0.00000000E+00  0.00000000E+00  0.00000000E+00
  0.00000000E+00  0.00000000E+00  0.00000000E+00
  0.00000000E+00  0.00000000E+00  0.00000000E+00
  0.00000000E+00  0.00000000E+00  0.00000000E+00
  0.00000000E+00  0.00000000E+00  0.00000000E+00
  0.00000000E+00  0.00000000E+00  0.00000000E+00
  0.00000000E+00  0.00000000E+00  0.00000000E+00
  0.00000000E+00  0.00000000E+00  0.00000000E+00
  0.00000000E+00  0.00000000E+00  0.00000000E+00
  0.00000000E+00  0.00000000E+00  0.00000000E+00
  0.00000000E+00  0.00000000E+00  0.00000000E+00
  0.00000000E+00  0.00000000E+00  0.00000000E+00
  0.00000000E+00  0.00000000E+00  0.00000000E+00
  0.00000000E+00  0.00000000E+00  0.00000000E+00
  0.00000000E+00  0.00000000E+00  0.00000000E+00
  0.00000000E+00  0.00000000E+00  0.00000000E+00
  0.00000000E+00  0.00000000E+00  0.00000000E+00
  0.00000000E+00  0.00000000E+00  0.00000000E+00
  0.00000000E+00  0.00000000E+00  0.00000000E+00
  0.00000000E+00  0.00000000E+00  0.00000000E+00
  0.00000000E+00  0.00000000E+00  0.00000000E+00
  0.00000000E+00  0.00000000E+00  0.00000000E+00
  0.00000000E+00  0.00000000E+00  0.00000000E+00
  0.00000000E+00  0.00000000E+00  0.00000000E+00
  0.00000000E+00  0.00000000E+00  0.00000000E+00
  0.00000000E+00  0.00000000E+00  0.00000000E+00
  0.00000000E+00  0.00000000E+00  0.00000000E+00
  0.00000000E+00  0.00000000E+00  0.00000000E+00
  0.00000000E+00  0.00000000E+00  0.00000000E+00
  0.00000000E+00  0.00000000E+00  0.00000000E+00
  0.00000000E+00  0.00000000E+00  0.00000000E+00
  0.00000000E+00  0.00000000E+00  0.00000000E+00
  0.00000000E+00  0.00000000E+00  0.00000000E+00
  0.00000000E+00  0.00000000E+00  0.00000000E+00
  0.00000000E+00  0.00000000E+00  0.00000000E+00
  0.00000000E+00  0.00000000E+00  0.00000000E+00
  0.00000000E+00  0.00000000E+00  0.00000000E+00
  0.00000000E+00  0.00000000E+00  0.00000000E+00
  0.00000000E+00  0.00000000E+00  0.00000000E+00
  0.00000000E+00  0.00000000E+00  0.00000000E+00
  0.00000000E+00  0.00000000E+00  0.00000000E+00
  0.00000000E+00  0.00000000E+00  0.00000000E+00
  0.00000000E+00  0.00000000E+00  0.00000000E+00
  0.00000000E+00  0.00000000E+00  0.00000000E+00
  0.00000000E+00  0.00000000E+00  0.00000000E+00
  0.00000000E+00  0.00000000E+00  0.00000000E+00
  0.00000000E+00  0.00000000E+00  0.00000000E+00
  0.00000000E+00  0.00000000E+00  0.00000000E+00
  0.00000000E+00  0.00000000E+00  0.00000000E+00
  0.00000000E+00  0.00000000E+00  0.00000000E+00
  0.00000000E+00  0.00000000E+00  0.00000000E+00
  0.00000000E+00  0.00000000E+00  0.00000000E+00
  0.00000000E+00  0.00000000E+00  0.00000000E+00
  0.00000000E+00  0.00000000E+00  0.00000000E+00
  0.00000000E+00  0.00000000E+00  0.00000000E+00
  0.00000000E+00  0.00000000E+00  0.00000000E+00
  0.00000000E+00  0.00000000E+00  0.00000000E+00
  0.00000000E+00  0.00000000E+00  0.00000000E+00
  0.00000000E+00  0.00000000E+00  0.00000000E+00
  0.00000000E+00  0.00000000E+00  0.00000000E+00
  0.00000000E+00  0.00000000E+00  0.00000000E+00
  0.00000000E+00  0.00000000E+00  0.00000000E+00
  0.00000000E+00  0.00000000E+00  0.00000000E+00
  0.00000000E+00  0.00000000E+00  0.00000000E+00
  0.00000000E+00  0.00000000E+00  0.00000000E+00
  0.00000000E+00  0.00000000E+00  0.00000000E+00
  0.00000000E+00  0.00000000E+00  0.00000000E+00
  0.00000000E+00  0.00000000E+00  0.00000000E+00
  0.00000000E+00  0.00000000E+00  0.00000000E+00
  0.00000000E+00  0.00000000E+00  0.00000000E+00
  0.00000000E+00  0.00000000E+00  0.00000000E+00
  0.00000000E+00  0.00000000E+00  0.00000000E+00
  0.00000000E+00  0.00000000E+00  0.00000000E+00
  0.00000000E+00  0.00000000E+00  0.00000000E+00
  0.00000000E+00  0.00000000E+00  0.00000000E+00
  0.00000000E+00  0.00000000E+00  0.00000000E+00
  0.00000000E+00  0.00000000E+00  0.00000000E+00
  0.00000000E+00  0.00000000E+00  0.00000000E+00
  0.00000000E+00  0.00000000E+00  0.00000000E+00
  0.00000000E+00  0.00000000E+00  0.00000000E+00
  0.00000000E+00  0.00000000E+00  0.00000000E+00
  0.00000000E+00  0.00000000E+00  0.00000000E+00
  0.00000000E+00  0.00000000E+00  0.00000000E+00
  0.00000000E+00  0.00000000E+00  0.00000000E+00