B96 C24                                 
    1.000000000000000     
     9.1486330869447769   -0.6894621620115008    4.1551092748028173
     3.3529927801069146    8.8322049434702077    4.2921978657374833
    -0.0696764140388152    0.1097743134745829   10.3748205204243273
   B    C 
    96    24
Direct
  0.1576877870541249  0.4044027989556553  0.4044046669721977
  0.1576877870541249  0.4044027989556553  0.9044046669721979
  0.1576877870541249  0.9044027989556550  0.4044046669721977
  0.1576877870541249  0.9044027989556550  0.9044046669721979
  0.6576877870541249  0.4044027989556553  0.4044046669721977
  0.6576877870541249  0.4044027989556553  0.9044046669721979
  0.6576877870541249  0.9044027989556550  0.4044046669721977
  0.6576877870541249  0.9044027989556550  0.9044046669721979
  0.4013456409078555  0.4012780121909781  0.1579943357123129
  0.4013456409078555  0.4012780121909781  0.6579943357123128
  0.4013456409078555  0.9012780121909776  0.1579943357123129
  0.4013456409078555  0.9012780121909776  0.6579943357123128
  0.9013456409078554  0.4012780121909781  0.1579943357123129
  0.9013456409078554  0.4012780121909781  0.6579943357123128
  0.9013456409078554  0.9012780121909776  0.1579943357123129
  0.9013456409078554  0.9012780121909776  0.6579943357123128
  0.4013163106296833  0.1579956628666919  0.4012690233900563
  0.4013163106296833  0.1579956628666919  0.9012690233900567
  0.4013163106296833  0.6579956628666920  0.4012690233900563
  0.4013163106296833  0.6579956628666920  0.9012690233900567
  0.9013163106296834  0.1579956628666919  0.4012690233900563
  0.9013163106296834  0.1579956628666919  0.9012690233900567
  0.9013163106296834  0.6579956628666920  0.4012690233900563
  0.9013163106296834  0.6579956628666920  0.9012690233900567
  0.3422139673172264  0.0958635886426159  0.0958736896913718
  0.3422139673172264  0.0958635886426159  0.5958736896913718
  0.3422139673172264  0.5958635886426162  0.0958736896913718
  0.3422139673172264  0.5958635886426162  0.5958736896913718
  0.8422139673172261  0.0958635886426159  0.0958736896913718
  0.8422139673172261  0.0958635886426159  0.5958736896913718
  0.8422139673172261  0.5958635886426163  0.0958736896913718
  0.8422139673172261  0.5958635886426162  0.5958736896913718
  0.0991946776269833  0.0977563170650793  0.3434241024830669
  0.0991946776269833  0.0977563170650793  0.8434241024830671
  0.0991946776269833  0.5977563170650791  0.3434241024830669
  0.0991946776269833  0.5977563170650791  0.8434241024830671
  0.5991946776269835  0.0977563170650793  0.3434241024830669
  0.5991946776269835  0.0977563170650793  0.8434241024830671
  0.5991946776269835  0.5977563170650791  0.3434241024830669
  0.5991946776269835  0.5977563170650791  0.8434241024830671
  0.0992209076055355  0.3434085130889987  0.0977691325113025
  0.0992209076055355  0.3434085130889987  0.5977691325113026
  0.0992209076055355  0.8434085130889987  0.0977691325113025
  0.0992209076055355  0.8434085130889987  0.5977691325113026
  0.5992209076055356  0.3434085130889987  0.0977691325113025
  0.5992209076055356  0.3434085130889987  0.5977691325113026
  0.5992209076055356  0.8434085130889987  0.0977691325113025
  0.5992209076055356  0.8434085130889987  0.5977691325113026
  0.4939845651873000  0.4981781341997413  0.3371998666986901
  0.4939845651873000  0.4981781341997413  0.8371998666986898
  0.4939845651873000  0.9981781341997412  0.3371998666986901
  0.4939845651873000  0.9981781341997412  0.8371998666986898
  0.9939845651873001  0.4981781341997413  0.3371998666986901
  0.9939845651873001  0.4981781341997413  0.8371998666986898
  0.9939845651873001  0.9981781341997412  0.3371998666986901
  0.9939845651873001  0.9981781341997412  0.8371998666986898
  0.4939949176696798  0.3372086709923025  0.4981677953047692
  0.4939949176696798  0.3372086709923025  0.9981677953047695
  0.4939949176696798  0.8372086709923020  0.4981677953047692
  0.4939949176696798  0.8372086709923020  0.9981677953047695
  0.9939949176696796  0.3372086709923025  0.4981677953047692
  0.9939949176696796  0.3372086709923025  0.9981677953047695
  0.9939949176696796  0.8372086709923020  0.4981677953047692
  0.9939949176696796  0.8372086709923020  0.9981677953047695
  0.1706726678680892  0.0034009925374125  0.0034156223290139
  0.1706726678680892  0.0034009925374125  0.5034156223290138
  0.1706726678680892  0.5034009925374128  0.0034156223290139
  0.1706726678680892  0.5034009925374128  0.5034156223290138
  0.6706726678680890  0.0034009925374125  0.0034156223290139
  0.6706726678680890  0.0034009925374125  0.5034156223290138
  0.6706726678680890  0.5034009925374128  0.0034156223290139
  0.6706726678680890  0.5034009925374128  0.5034156223290138
  0.0043758582534213  0.0023377844993839  0.1647705249161033
  0.0043758582534213  0.0023377844993839  0.6647705249161032
  0.0043758582534213  0.5023377844993839  0.1647705249161033
  0.0043758582534213  0.5023377844993839  0.6647705249161032
  0.5043758582534212  0.0023377844993839  0.1647705249161033
  0.5043758582534212  0.0023377844993839  0.6647705249161032
  0.5043758582534212  0.5023377844993839  0.1647705249161033
  0.5043758582534212  0.5023377844993839  0.6647705249161032
  0.0043448851782990  0.1647782785295944  0.0023450848647390
  0.0043448851782990  0.1647782785295944  0.5023450848647391
  0.0043448851782990  0.6647782785295944  0.0023450848647390
  0.0043448851782990  0.6647782785295944  0.5023450848647391
  0.5043448851782993  0.1647782785295944  0.0023450848647390
  0.5043448851782993  0.1647782785295944  0.5023450848647391
  0.5043448851782993  0.6647782785295944  0.0023450848647390
  0.5043448851782993  0.6647782785295944  0.5023450848647391
  0.2460784252938367  0.2490877045707497  0.2490608127734747
  0.2460784252938367  0.2490877045707497  0.7490608127734746
  0.2460784252938366  0.7490877045707499  0.2490608127734747
  0.2460784252938366  0.7490877045707499  0.7490608127734746
  0.7460784252938367  0.2490877045707497  0.2490608127734747
  0.7460784252938367  0.2490877045707497  0.7490608127734746
  0.7460784252938367  0.7490877045707499  0.2490608127734747
  0.7460784252938367  0.7490877045707499  0.7490608127734746
  0.3393549879625309  0.4976310970422305  0.4976204376452495
  0.3393549879625309  0.4976310970422305  0.9976204376452494
  0.3393549879625309 -0.0023689029577697  0.4976204376452495
  0.3393549879625309 -0.0023689029577697  0.9976204376452494
  0.8393549879625311  0.4976310970422305  0.4976204376452495
  0.8393549879625311  0.4976310970422305  0.9976204376452494
  0.8393549879625311 -0.0023689029577697  0.4976204376452495
  0.8393549879625311 -0.0023689029577697  0.9976204376452494
  0.3038291484525809  0.3099041422756127  0.3098632804004521
  0.3038291484525809  0.3099041422756127  0.8098632804004517
  0.3038291484525809  0.8099041422756128  0.3098632804004521
  0.3038291484525809  0.8099041422756128  0.8098632804004517
  0.8038291484525807  0.3099041422756127  0.3098632804004521
  0.8038291484525807  0.3099041422756127  0.8098632804004517
  0.8038291484525807  0.8099041422756128  0.3098632804004521
  0.8038291484525807  0.8099041422756128  0.8098632804004517
  0.1923852529928608  0.1867693025429655  0.1868226243072116
  0.1923852529928608  0.1867693025429655  0.6868226243072116
  0.1923852529928608  0.6867693025429658  0.1868226243072116
  0.1923852529928608  0.6867693025429658  0.6868226243072116
  0.6923852529928610  0.1867693025429655  0.1868226243072116
  0.6923852529928610  0.1867693025429655  0.6868226243072116
  0.6923852529928610  0.6867693025429658  0.1868226243072116
  0.6923852529928610  0.6867693025429658  0.6868226243072116
 
  0.00000000E+00  0.00000000E+00  0.00000000E+00
  0.00000000E+00  0.00000000E+00  0.00000000E+00
  0.00000000E+00  0.00000000E+00  0.00000000E+00
  0.00000000E+00  0.00000000E+00  0.00000000E+00
  0.00000000E+00  0.00000000E+00  0.00000000E+00
  0.00000000E+00  0.00000000E+00  0.00000000E+00
  0.00000000E+00  0.00000000E+00  0.00000000E+00
  0.00000000E+00  0.00000000E+00  0.00000000E+00
  0.00000000E+00  0.00000000E+00  0.00000000E+00
  0.00000000E+00  0.00000000E+00  0.00000000E+00
  0.00000000E+00  0.00000000E+00  0.00000000E+00
  0.00000000E+00  0.00000000E+00  0.00000000E+00
  0.00000000E+00  0.00000000E+00  0.00000000E+00
  0.00000000E+00  0.00000000E+00  0.00000000E+00
  0.00000000E+00  0.00000000E+00  0.00000000E+00
  0.00000000E+00  0.00000000E+00  0.00000000E+00
  0.00000000E+00  0.00000000E+00  0.00000000E+00
  0.00000000E+00  0.00000000E+00  0.00000000E+00
  0.00000000E+00  0.00000000E+00  0.00000000E+00
  0.00000000E+00  0.00000000E+00  0.00000000E+00
  0.00000000E+00  0.00000000E+00  0.00000000E+00
  0.00000000E+00  0.00000000E+00  0.00000000E+00
  0.00000000E+00  0.00000000E+00  0.00000000E+00
  0.00000000E+00  0.00000000E+00  0.00000000E+00
  0.00000000E+00  0.00000000E+00  0.00000000E+00
  0.00000000E+00  0.00000000E+00  0.00000000E+00
  0.00000000E+00  0.00000000E+00  0.00000000E+00
  0.00000000E+00  0.00000000E+00  0.00000000E+00
  0.00000000E+00  0.00000000E+00  0.00000000E+00
  0.00000000E+00  0.00000000E+00  0.00000000E+00
  0.00000000E+00  0.00000000E+00  0.00000000E+00
  0.00000000E+00  0.00000000E+00  0.00000000E+00
  0.00000000E+00  0.00000000E+00  0.00000000E+00
  0.00000000E+00  0.00000000E+00  0.00000000E+00
  0.00000000E+00  0.00000000E+00  0.00000000E+00
  0.00000000E+00  0.00000000E+00  0.00000000E+00
  0.00000000E+00  0.00000000E+00  0.00000000E+00
  0.00000000E+00  0.00000000E+00  0.00000000E+00
  0.00000000E+00  0.00000000E+00  0.00000000E+00
  0.00000000E+00  0.00000000E+00  0.00000000E+00
  0.00000000E+00  0.00000000E+00  0.00000000E+00
  0.00000000E+00  0.00000000E+00  0.00000000E+00
  0.00000000E+00  0.00000000E+00  0.00000000E+00
  0.00000000E+00  0.00000000E+00  0.00000000E+00
  0.00000000E+00  0.00000000E+00  0.00000000E+00
  0.00000000E+00  0.00000000E+00  0.00000000E+00
  0.00000000E+00  0.00000000E+00  0.00000000E+00
  0.00000000E+00  0.00000000E+00  0.00000000E+00
  0.00000000E+00  0.00000000E+00  0.00000000E+00
  0.00000000E+00  0.00000000E+00  0.00000000E+00
  0.00000000E+00  0.00000000E+00  0.00000000E+00
  0.00000000E+00  0.00000000E+00  0.00000000E+00
  0.00000000E+00  0.00000000E+00  0.00000000E+00
  0.00000000E+00  0.00000000E+00  0.00000000E+00
  0.00000000E+00  0.00000000E+00  0.00000000E+00
  0.00000000E+00  0.00000000E+00  0.00000000E+00
  0.00000000E+00  0.00000000E+00  0.00000000E+00
  0.00000000E+00  0.00000000E+00  0.00000000E+00
  0.00000000E+00  0.00000000E+00  0.00000000E+00
  0.00000000E+00  0.00000000E+00  0.00000000E+00
  0.00000000E+00  0.00000000E+00  0.00000000E+00
  0.00000000E+00  0.00000000E+00  0.00000000E+00
  0.00000000E+00  0.00000000E+00  0.00000000E+00
  0.00000000E+00  0.00000000E+00  0.00000000E+00
  0.00000000E+00  0.00000000E+00  0.00000000E+00
  0.00000000E+00  0.00000000E+00  0.00000000E+00
  0.00000000E+00  0.00000000E+00  0.00000000E+00
  0.00000000E+00  0.00000000E+00  0.00000000E+00
  0.00000000E+00  0.00000000E+00  0.00000000E+00
  0.00000000E+00  0.00000000E+00  0.00000000E+00
  0.00000000E+00  0.00000000E+00  0.00000000E+00
  0.00000000E+00  0.00000000E+00  0.00000000E+00
  0.00000000E+00  0.00000000E+00  0.00000000E+00
  0.00000000E+00  0.00000000E+00  0.00000000E+00
  0.00000000E+00  0.00000000E+00  0.00000000E+00
  0.00000000E+00  0.00000000E+00  0.00000000E+00
  0.00000000E+00  0.00000000E+00  0.00000000E+00
  0.00000000E+00  0.00000000E+00  0.00000000E+00
  0.00000000E+00  0.00000000E+00  0.00000000E+00
  0.00000000E+00  0.00000000E+00  0.00000000E+00
  0.00000000E+00  0.00000000E+00  0.00000000E+00
  0.00000000E+00  0.00000000E+00  0.00000000E+00
  0.00000000E+00  0.00000000E+00  0.00000000E+00
  0.00000000E+00  0.00000000E+00  0.00000000E+00
  0.00000000E+00  0.00000000E+00  0.00000000E+00
  0.00000000E+00  0.00000000E+00  0.00000000E+00
  0.00000000E+00  0.00000000E+00  0.00000000E+00
  0.00000000E+00  0.00000000E+00  0.00000000E+00
  0.00000000E+00  0.00000000E+00  0.00000000E+00
  0.00000000E+00  0.00000000E+00  0.00000000E+00
  0.00000000E+00  0.00000000E+00  0.00000000E+00
  0.00000000E+00  0.00000000E+00  0.00000000E+00
  0.00000000E+00  0.00000000E+00  0.00000000E+00
  0.00000000E+00  0.00000000E+00  0.00000000E+00
  0.00000000E+00  0.00000000E+00  0.00000000E+00
  0.00000000E+00  0.00000000E+00  0.00000000E+00
  0.00000000E+00  0.00000000E+00  0.00000000E+00
  0.00000000E+00  0.00000000E+00  0.00000000E+00
  0.00000000E+00  0.00000000E+00  0.00000000E+00
  0.00000000E+00  0.00000000E+00  0.00000000E+00
  0.00000000E+00  0.00000000E+00  0.00000000E+00
  0.00000000E+00  0.00000000E+00  0.00000000E+00
  0.00000000E+00  0.00000000E+00  0.00000000E+00
  0.00000000E+00  0.00000000E+00  0.00000000E+00
  0.00000000E+00  0.00000000E+00  0.00000000E+00
  0.00000000E+00  0.00000000E+00  0.00000000E+00
  0.00000000E+00  0.00000000E+00  0.00000000E+00
  0.00000000E+00  0.00000000E+00  0.00000000E+00
  0.00000000E+00  0.00000000E+00  0.00000000E+00
  0.00000000E+00  0.00000000E+00  0.00000000E+00
  0.00000000E+00  0.00000000E+00  0.00000000E+00
  0.00000000E+00  0.00000000E+00  0.00000000E+00
  0.00000000E+00  0.00000000E+00  0.00000000E+00
  0.00000000E+00  0.00000000E+00  0.00000000E+00
  0.00000000E+00  0.00000000E+00  0.00000000E+00
  0.00000000E+00  0.00000000E+00  0.00000000E+00
  0.00000000E+00  0.00000000E+00  0.00000000E+00
  0.00000000E+00  0.00000000E+00  0.00000000E+00
  0.00000000E+00  0.00000000E+00  0.00000000E+00
  0.00000000E+00  0.00000000E+00  0.00000000E+00
