B96 C16                                 
    1.000000000000000     
     9.4249639999999992    0.0725710000000000    4.3069759999999997
     2.7959790000000000    9.0009859999999993    4.3069769999999998
     0.0977430000000000    0.0725710000000000   10.3619710000000005
   B    C 
    96    16
Direct
  0.1680450263410785  0.3978588694233053  0.4029151159511655
  0.1545030122844054  0.4101587600674904  0.8969106454654270
  0.1635361599750431  0.8951273560735244  0.4019156678347149
  0.1679928872819335  0.8985064141143391  0.9045711148927605
  0.6582144428626880  0.3983814188808055  0.4039351415168680
  0.6589010678104014  0.4017185943321769  0.8956523358814638
  0.6590255920439566  0.9029336803593222  0.3929642673545158
  0.6557835607501747  0.8965155813948094  0.8993920673273019
  0.3998016075768617  0.3994268007216161  0.1523961527917534
  0.3991646241109918  0.4101498081740855  0.6608409424838382
  0.3984214164551961  0.8979579886742615  0.1644688395750808
  0.4018685055484433  0.8967919249532241  0.6653352352902884
  0.9058029059887887  0.4069368455416263  0.1655771131583783
  0.9008473547132048  0.3912169245432912  0.6572819101056867
  0.9045968083815078  0.9009732894430925  0.1587580582655384
  0.9032118220432985  0.8960185528455147  0.6652516116882587
  0.3975147001062767  0.1598822293233804  0.3976925891734734
  0.3864020064300108  0.1685787800132804  0.9048526514696476
  0.4076414467027336  0.6559857752736632  0.4040601480672931
  0.3972428563406198  0.6558808569958586  0.9031146687782515
  0.8989636255851612  0.1461633745858038  0.3958718492460569
  0.9021568368247384  0.1713065793339252  0.9066249195389370
  0.8979925653814662  0.6651171789817685  0.4054660648345713
  0.8997787549837671  0.6595259387185343  0.8903250837129406
  0.3307333225586074  0.1065371861406728  0.1004320533779790
  0.3424404537498156  0.0955253874558148  0.5992084559417068
  0.3352429450401340  0.5983017199415956  0.0954313438075099
  0.3422549540608474  0.6068746997036515  0.6047838318404637
  0.8410095538888342  0.1059995075143317  0.0986166180076215
  0.8390423473465959  0.0952340654845214  0.5967266230189469
  0.8449422509278720  0.5995562242114092  0.0988112504513027
  0.8469636444238317  0.5881386867115505  0.6006696224975056
  0.0946328925057066  0.0915949232323727  0.3341000792731766
  0.1043536896299590  0.1021661186041606  0.8445982915599941
  0.1057415946250891  0.5985859498889250  0.3499297098476597
  0.0989655832335137  0.5982601121293978  0.8356928400339398
  0.5921610185512529  0.1034084518525663  0.3344730362513311
  0.5952408069620502  0.1023219007842574  0.8351545306779957
  0.6017212785283467  0.5938175680112945  0.3416839869831495
  0.5969122436322650  0.6060942118886880  0.8387945865139841
  0.0967997774655355  0.3525986345872979  0.1005259053231551
  0.1007553241536750  0.3270008572797846  0.6041708184046514
  0.1011276296583510  0.8396603707278669  0.1045416152134288
  0.1017769504320993  0.8421562928574522  0.6074700721691675
  0.5923060489754507  0.3352045508606489  0.0939505792903574
  0.5984030555169724  0.3410952720642493  0.6012976989593181
  0.5946679099641033  0.8398142055901793  0.1035783169965671
  0.5987618219588854  0.8388634671457869  0.5955467883039294
  0.3307879595223560  0.0023058333371561  0.0076375700073004
  0.3283771704292949  0.9961773798369974  0.5060636755801561
  0.3320523815891788  0.4983131171930112  0.9941512481033230
  0.3250513884818348  0.5073819577906813  0.5074696047926335
  0.8403598609669274  0.0067350743517407  0.9930281673424077
  0.8335745450840371  0.9775553178057923  0.5088076707443892
  0.8249549377483464  0.4915455042524914  0.0069736640470574
  0.8442208978552259  0.5007405791935534  0.4791162950691825
  0.0021649328826283  0.9725913990192446  0.3417177770018336
  0.0035228218290076  0.0062759683977405  0.8265827100567585
  0.0164692332155305  0.5095096585686509  0.3225022032521876
  0.9967023297662782  0.4978169334444683  0.8276242418971771
  0.4929189229653393  0.0006646686374248  0.3322823437218129
  0.4915540382359043  0.0062031269319811  0.8316042608347863
  0.4940617879728644  0.4886715944815108  0.3438117571048538
  0.5002720282310381  0.5014798167714467  0.8280827690360257
  0.0001888759656523  0.3305864149574563  0.0145001223160525
  0.0144075715028611  0.3289078355391483  0.4809655206857560
  0.0131621592336026  0.8363353672145033  0.9883107986949258
  0.0084498205611778  0.8174310560743445  0.5084533919282264
  0.4933066833824203  0.3369980764633647  0.9859766873139151
  0.4874817761308274  0.3360899679585597  0.5097434975894725
  0.4929475858358906  0.8431343405240812  0.9991456459563014
  0.4968617256968496  0.8354357492274891  0.4954622651444370
  0.1757454227364940  0.9903449355004189  0.0085881737342099
  0.1653803537797554  0.0091508062555671  0.4906217278073147
  0.1697224741811190  0.5071029519177642  0.9903858749296721
  0.1685704437713916  0.4914100932627378  0.5139740152170063
  0.6724772435112512  0.0028397461440467  0.9899326795416287
  0.6639907359116088  0.9922024746781158  0.4980049477809431
  0.6596338791470610  0.5047736640041293  0.0003074092508222
  0.6719921964439139  0.5067715945148098  0.4966978437903327
  0.9989425149196726  0.9948886754324557  0.1704620304720124
  0.9977550778783917  0.0093071436068651  0.6645831482281697
  0.0047018272101528  0.5154656800085083  0.1583070853058640
  0.9988141948849167  0.4817649135623755  0.6793758167378895
  0.4896273688139642  0.0087508572165114  0.1694449929308884
  0.4967959213570182  0.9997171309009936  0.6684133322429416
  0.4984664989697303  0.4965938258330934  0.1648250401521195
  0.5121632308707376  0.4961752549220871  0.6685921301469477
  0.0099816067170039  0.1718294532635748  0.0094682100195088
  0.0052278835508999  0.1656837593682582  0.4852682534305740
  0.9997347858245684  0.6826319608122080  0.9812218777491478
  0.0055405165873422  0.6555910233462960  0.5106563918301641
  0.4960122340792447  0.1712386021507604  0.9992006448189611
  0.4970286158519023  0.1701597723297019  0.4948446433488461
  0.4982803252912825  0.6706896863278794  0.0025354884385917
  0.5064579945516396  0.6711235357764899  0.5063728988904590
  0.3186699937945147  0.3156150783596698  0.3134607022625939
  0.3055009140662846  0.3281291940739966  0.8182566696268918
  0.3124487834523060  0.8120982476503523  0.3254058761201501
  0.3154471476863855  0.8178807587560828  0.8178109482041496
  0.8157384796166101  0.3098918782298133  0.3231314265782363
  0.8132804785443448  0.3199748781541956  0.8114327933168102
  0.8184249145382948  0.8188800794611063  0.3175714494432279
  0.8156507126019817  0.8133587053516719  0.8146733589262359
  0.1720809394878702  0.1934236864666299  0.1823772348650133
  0.1861173758776495  0.1776008896086153  0.6907222537311696
  0.1899512679852604  0.6800413308438676  0.1959275086998689
  0.1943072714751617  0.6935873845431736  0.6798461148677619
  0.6771944681665338  0.1855589236820680  0.1813880465791048
  0.6853381032452122  0.1807568277482668  0.6796630809916765
  0.6861280223746961  0.6794632285574026  0.1867154934994131
  0.6835847761164132  0.6854237475335557  0.6810037601031814
 
  0.24017077E-02 -0.64988588E-03  0.20493709E-02
 -0.97777231E-02 -0.31891442E-02 -0.11298881E-01
  0.65979378E-02 -0.22604388E-02  0.46735142E-02
 -0.60126710E-02  0.11536387E-02 -0.44300194E-02
 -0.35668979E-02 -0.22914235E-02 -0.11785986E-03
  0.78909096E-02 -0.62123905E-03 -0.68642152E-03
  0.10923640E-01  0.87080743E-02  0.46464637E-02
  0.56139634E-02 -0.38461655E-02  0.41136950E-02
  0.31578708E-02 -0.14940216E-03  0.13879412E-01
 -0.51277204E-02  0.32141938E-02  0.29998723E-02
 -0.58136224E-02  0.36522968E-02 -0.57379261E-02
  0.10271117E-01  0.79671386E-02 -0.10384837E-02
 -0.88729180E-02 -0.16118727E-02  0.13955011E-02
  0.34793318E-02 -0.50291581E-02 -0.10015857E-01
 -0.10348463E-01 -0.22122802E-02 -0.88530956E-02
 -0.32217002E-02  0.60452034E-03 -0.15036177E-02
  0.31544517E-02 -0.17760795E-02  0.49308508E-02
  0.33001301E-03  0.85544333E-02  0.36559583E-02
  0.11438880E-01  0.55218456E-02 -0.41733775E-02
 -0.19859093E-02  0.65009526E-02  0.58356841E-02
 -0.21061014E-03 -0.65765404E-02  0.45615736E-02
 -0.16578548E-02  0.58522901E-03 -0.40369893E-02
  0.22036981E-02  0.48354544E-03  0.39252644E-02
 -0.15313372E-02  0.63035174E-03 -0.25396113E-02
  0.21516180E-02  0.67146963E-02 -0.43801657E-02
  0.27725315E-02 -0.96866038E-03  0.93802891E-02
  0.58788590E-02  0.22695300E-02 -0.10015990E-01
  0.70708907E-02  0.52360209E-02 -0.12150786E-02
 -0.65890361E-03  0.38029370E-02  0.89931828E-03
  0.25853615E-02 -0.36251505E-02  0.26640325E-02
 -0.12333848E-01  0.96558301E-03 -0.85852836E-02
 -0.21606650E-02 -0.18638513E-02  0.53297752E-02
 -0.60381604E-03  0.36687977E-02 -0.10730023E-02
 -0.24852049E-02 -0.26713163E-02 -0.26028249E-02
  0.25530465E-02 -0.16350786E-02  0.21650102E-02
 -0.60206562E-02 -0.71592331E-02 -0.62852111E-02
  0.65413416E-02 -0.36369772E-04  0.41139390E-03
  0.25421395E-02 -0.19991215E-02  0.14474160E-02
  0.71397885E-02 -0.58153594E-02  0.75312710E-02
  0.87833965E-03  0.11982326E-02  0.69934860E-03
 -0.65970297E-02 -0.33172922E-02 -0.38570228E-03
  0.22667808E-03 -0.82023583E-02 -0.91633094E-03
  0.28272882E-02 -0.41228713E-02 -0.27199155E-02
  0.12278503E-02  0.28851032E-02  0.10459278E-02
  0.37629942E-02  0.37476209E-02  0.31707811E-02
  0.35684104E-02 -0.55139347E-02 -0.62920033E-02
 -0.38274368E-02 -0.12311996E-02  0.34432549E-02
  0.69616527E-02  0.31583332E-02  0.30274170E-02
 -0.15008411E-02  0.25964127E-02 -0.67544466E-02
  0.91710857E-03 -0.74557269E-03  0.83203746E-02
  0.13567497E-02 -0.66306774E-02  0.24588474E-02
  0.12302258E-01  0.27235759E-02 -0.44000461E-02
 -0.18256384E-02  0.59884242E-03  0.16699061E-02
  0.35675487E-02  0.14129351E-02  0.33233170E-02
  0.48420446E-03  0.12058179E-03  0.27725322E-02
  0.21187624E-04  0.13506392E-02  0.57636290E-02
  0.27517000E-02  0.47296189E-02  0.13014811E-02
 -0.76541044E-02  0.14677585E-02 -0.19757255E-02
 -0.59787704E-02 -0.16279308E-03 -0.44670191E-02
 -0.91623795E-02 -0.70126355E-02  0.67988012E-02
  0.44398479E-02 -0.38504645E-02  0.37419781E-02
  0.13206194E-01  0.11937730E-01  0.30866864E-02
  0.13594660E-02  0.54794016E-02  0.22387854E-02
 -0.67751580E-02 -0.19284398E-02  0.13651837E-02
 -0.70125719E-02 -0.36734939E-02 -0.26788650E-02
  0.12025580E-02 -0.38954506E-02 -0.47907423E-02
 -0.28893198E-02 -0.47324922E-02 -0.49328047E-02
  0.31573354E-02  0.97671631E-03  0.14480356E-02
  0.32753626E-02 -0.34922457E-02  0.11226800E-01
 -0.33035545E-02  0.16885301E-02 -0.19869716E-02
  0.78420923E-03 -0.22680023E-02 -0.97769077E-03
  0.10910260E-01 -0.17429596E-02  0.64018974E-02
 -0.60013601E-02 -0.21885687E-03 -0.16755365E-02
 -0.39488967E-02  0.25755328E-02  0.82085972E-02
 -0.51869399E-02  0.59381593E-02 -0.10977407E-01
  0.25222998E-02 -0.26385862E-02 -0.65377079E-02
 -0.80054812E-02 -0.73136533E-02  0.70870457E-02
  0.55330323E-03  0.23261620E-02  0.70804577E-02
  0.43721271E-02  0.24373864E-02 -0.13613868E-02
  0.36271112E-02 -0.57467506E-02 -0.15124097E-02
 -0.21930334E-02  0.24065866E-02  0.23434127E-02
 -0.50382082E-02 -0.10650619E-02  0.72992893E-02
 -0.80747282E-02  0.65965859E-02 -0.48659768E-02
  0.34563794E-02 -0.26365320E-02  0.14217638E-02
 -0.28658488E-02 -0.39418057E-02  0.51258265E-02
  0.10724809E-01  0.27099903E-02  0.43861378E-02
  0.13215305E-02  0.11730255E-01  0.89666445E-04
  0.15620943E-02  0.34758617E-02 -0.10401089E-02
 -0.16110637E-02 -0.15866160E-02 -0.32931389E-02
 -0.34346135E-02 -0.30595327E-02  0.12927960E-02
 -0.40079373E-02 -0.37959901E-02 -0.25730345E-02
 -0.78825926E-02  0.47107963E-03 -0.75702115E-02
  0.21090622E-02 -0.23865998E-02 -0.29863917E-02
  0.28665992E-02  0.45392261E-02  0.14775321E-02
 -0.49136152E-02 -0.47377246E-02 -0.46581832E-02
  0.10912515E-02  0.64816248E-02  0.13694145E-03
  0.14222636E-02  0.52572558E-03 -0.50491507E-02
 -0.72448612E-02 -0.54862866E-02 -0.97035731E-02
 -0.48644076E-02 -0.89721756E-02 -0.59034307E-02
 -0.67498085E-02 -0.34666121E-02  0.31473100E-02
 -0.48257839E-02 -0.56494594E-02 -0.25034971E-02
 -0.39627379E-02  0.22049625E-03  0.29897224E-02
  0.71170517E-03 -0.10247241E-02 -0.94586584E-02
  0.12836771E-03  0.78870662E-02  0.33982412E-02
 -0.22272276E-02  0.58012182E-02  0.14352728E-02
  0.87937020E-02 -0.79840755E-03 -0.10742814E-02
 -0.59516284E-02 -0.76834093E-05 -0.24669245E-02
 -0.62624014E-02 -0.96908361E-03 -0.99915524E-02
  0.41048060E-02  0.28229017E-02  0.89087936E-02
 -0.17162897E-02  0.35679281E-02  0.71400867E-02
  0.77575120E-03 -0.15712902E-02 -0.73900619E-02
  0.11654998E-01 -0.22008757E-02  0.41718301E-02
 
            1
   0.5000000000000000     
  0.54955796E+00 -0.44006044E-02 -0.12728258E-17  0.00000000E+00
  0.16818302E+00  0.39782119E+00  0.40297231E+00
  0.15403798E+00  0.40998762E+00  0.89662986E+00
  0.16392342E+00  0.89499771E+00  0.40203410E+00
  0.16765490E+00  0.89857404E+00  0.90446973E+00
  0.65806173E+00  0.39825447E+00  0.40404570E+00
  0.65933253E+00  0.40168220E+00  0.89545500E+00
  0.65946391E+00  0.90341515E+00  0.39280616E+00
  0.65614452E+00  0.89629790E+00  0.89953101E+00
  0.39996715E+00  0.39941227E+00  0.15300311E+00
  0.39883720E+00  0.41032933E+00  0.66104717E+00
  0.39805361E+00  0.89816553E+00  0.16425858E+00
  0.40228636E+00  0.89723441E+00  0.66492752E+00
  0.90535537E+00  0.40684858E+00  0.16586716E+00
  0.90111930E+00  0.39093924E+00  0.65680100E+00
  0.90408437E+00  0.90085586E+00  0.15859267E+00
  0.90303061E+00  0.89605369E+00  0.66523977E+00
  0.39771019E+00  0.15978039E+00  0.39789159E+00
  0.38627801E+00  0.16905473E+00  0.90488277E+00
  0.40816289E+00  0.65629271E+00  0.40351445E+00
  0.39702810E+00  0.65624193E+00  0.90333544E+00
  0.89905839E+00  0.14579459E+00  0.39620586E+00
  0.90206036E+00  0.17134123E+00  0.90645582E+00
  0.89810069E+00  0.66514209E+00  0.40560018E+00
  0.89968771E+00  0.65956249E+00  0.89022519E+00
  0.33073978E+00  0.10691312E+00  0.10006175E+00
  0.34260061E+00  0.95466979E-01  0.59961879E+00
  0.33552331E+00  0.59843080E+00  0.94777853E-01
  0.34254688E+00  0.60716563E+00  0.60448293E+00
  0.84091173E+00  0.10621158E+00  0.98612526E-01
  0.83923866E+00  0.95030045E-01  0.59685838E+00
  0.84427170E+00  0.59961656E+00  0.98650618E-01
  0.84687684E+00  0.58803313E+00  0.60100676E+00
  0.94540971E-01  0.91800262E-01  0.33400116E+00
  0.10426588E+00  0.10201866E+00  0.84457049E+00
  0.10590376E+00  0.59849321E+00  0.35000532E+00
  0.98764119E-01  0.59786449E+00  0.83563774E+00
  0.59251046E+00  0.10340461E+00  0.33434924E+00
  0.59540864E+00  0.10220912E+00  0.83520149E+00
  0.60219459E+00  0.59348826E+00  0.34198754E+00
  0.59693920E+00  0.60616060E+00  0.83878954E+00
  0.96502310E-01  0.35241530E+00  0.10070714E+00
  0.10090219E+00  0.32654335E+00  0.60425572E+00
  0.10134710E+00  0.83943060E+00  0.10441465E+00
  0.10179478E+00  0.84231661E+00  0.60744650E+00
  0.59244417E+00  0.33541154E+00  0.93960133E-01
  0.59868625E+00  0.34078906E+00  0.60100365E+00
  0.59448254E+00  0.83974512E+00  0.10385023E+00
  0.59908032E+00  0.83903681E+00  0.59548843E+00
  0.33066796E+00  0.24537515E-02  0.73000414E-02
  0.32843509E+00  0.99613230E+00  0.50645982E+00
  0.33223248E+00  0.49794174E+00  0.99434940E+00
  0.32566484E+00  0.50753258E+00  0.50693970E+00
  0.84025199E+00  0.67683096E-02  0.99313977E+00
  0.83374044E+00  0.97763199E+00  0.50886721E+00
  0.82497772E+00  0.49155104E+00  0.70956801E-02
  0.84419766E+00  0.50081372E+00  0.47937367E+00
  0.22337354E-02  0.97285418E+00  0.34164276E+00
  0.30911569E-02  0.63605875E-02  0.82663162E+00
  0.16154643E-01  0.50950382E+00  0.32241984E+00
  0.99632576E+00  0.49742520E+00  0.82827165E+00
  0.49321745E+00  0.44718626E-03  0.33242922E+00
  0.49206182E+00  0.68648860E-02  0.83126708E+00
  0.49404366E+00  0.48897621E+00  0.34380071E+00
  0.49994162E+00  0.50137336E+00  0.82833023E+00
  0.99987597E+00  0.33038419E+00  0.14584974E-01
  0.14537431E-01  0.32869197E+00  0.48077010E+00
  0.13087472E-01  0.83607387E+00  0.98821251E+00
  0.86017095E-02  0.81748421E+00  0.50843804E+00
  0.49353431E+00  0.33679797E+00  0.98650698E+00
  0.48727862E+00  0.33618582E+00  0.50969222E+00
  0.49302697E+00  0.84300794E+00  0.99911801E+00
  0.49746991E+00  0.83533323E+00  0.49556100E+00
  0.17542946E+00  0.99033488E+00  0.86428309E-02
  0.16512427E+00  0.92923631E-02  0.49106542E+00
  0.16935268E+00  0.50743996E+00  0.98986981E+00
  0.16875080E+00  0.49126473E+00  0.51364401E+00
  0.67216722E+00  0.24308096E-02  0.99057349E+00
  0.66397939E+00  0.99232942E+00  0.49829856E+00
  0.65982774E+00  0.50490913E+00  0.10483359E-03
  0.67228048E+00  0.50645052E+00  0.49663849E+00
  0.99878516E+00  0.99502264E+00  0.17058483E+00
  0.99750089E+00  0.92461334E-02  0.66506638E+00
  0.41647941E-02  0.51583779E+00  0.15814084E+00
  0.99904126E+00  0.48161633E+00  0.67941180E+00
  0.48953707E+00  0.85295817E-02  0.16982184E+00
  0.49732202E+00  0.99986398E+00  0.66834527E+00
  0.49834474E+00  0.49724817E+00  0.16460800E+00
  0.51219002E+00  0.49636927E+00  0.66845017E+00
  0.99229297E-02  0.17174258E+00  0.93698016E-02
  0.50942681E-02  0.16551336E+00  0.48545700E+00
  0.99958415E+00  0.68242210E+00  0.98124756E+00
  0.51151675E-02  0.65562225E+00  0.51045492E+00
  0.49616503E+00  0.17110603E+00  0.99904814E+00
  0.49710660E+00  0.17041183E+00  0.49477876E+00
  0.49809761E+00  0.67042831E+00  0.24953041E-02
  0.50640995E+00  0.67148497E+00  0.50624925E+00
  0.31873922E+00  0.31564602E+00  0.31317543E+00
  0.30520805E+00  0.32782858E+00  0.81803512E+00
  0.31233857E+00  0.81160100E+00  0.32537351E+00
  0.31514260E+00  0.81768775E+00  0.81816962E+00
  0.81557456E+00  0.30957875E+00  0.32320891E+00
  0.81306427E+00  0.31998702E+00  0.81166188E+00
  0.81848335E+00  0.81882638E+00  0.31711307E+00
  0.81552699E+00  0.81379756E+00  0.81470635E+00
  0.17186648E+00  0.19374748E+00  0.18240105E+00
  0.18660006E+00  0.17755453E+00  0.69048906E+00
  0.18963481E+00  0.68004336E+00  0.19593916E+00
  0.19399291E+00  0.69353876E+00  0.67951487E+00
  0.67736376E+00  0.18571198E+00  0.18168394E+00
  0.68518529E+00  0.18095363E+00  0.67998933E+00
  0.68619803E+00  0.67937820E+00  0.18636514E+00
  0.68424107E+00  0.68529635E+00  0.68098523E+00
  0.13880099E-03 -0.40345197E-04  0.55146024E-04
 -0.45549105E-03 -0.16443051E-03 -0.28945936E-03
  0.40391890E-03 -0.13810761E-03  0.10653393E-03
 -0.32356290E-03  0.54055659E-04 -0.10258533E-03
 -0.15498191E-03 -0.12520149E-03  0.10853223E-03
  0.43668603E-03 -0.41608188E-04 -0.20222830E-03
  0.44288491E-03  0.48051170E-03 -0.16538661E-03
  0.35552731E-03 -0.22788761E-03  0.13961388E-03
  0.17184036E-03 -0.13032829E-04  0.59656794E-03
 -0.32220480E-03  0.18993970E-03  0.18849022E-03
 -0.36128482E-03  0.19882170E-03 -0.21281861E-03
  0.41721047E-03  0.43281325E-03 -0.38997409E-03
 -0.43050480E-03 -0.80423470E-04  0.27691529E-03
  0.26097387E-03 -0.28406697E-03 -0.46010835E-03
 -0.50509360E-03 -0.11710746E-03 -0.16259463E-03
 -0.18400920E-03  0.25869468E-04 -0.20496426E-05
  0.19397414E-03 -0.95390692E-04  0.18926672E-03
 -0.13865056E-03  0.47653874E-03  0.41300572E-04
  0.53140051E-03  0.29294339E-03 -0.54095922E-03
 -0.21433296E-03  0.34287580E-03  0.23163109E-03
  0.96058173E-04 -0.37002347E-03  0.32676475E-03
 -0.10403168E-03  0.40169842E-04 -0.15972036E-03
  0.87963550E-04  0.36863466E-04  0.13407425E-03
 -0.93778494E-04  0.49197791E-04 -0.11629573E-03
  0.34084367E-05  0.37848861E-03 -0.37415016E-03
  0.17039694E-03 -0.64473961E-04  0.40581711E-03
  0.27375775E-03  0.13360101E-03 -0.66065582E-03
  0.26524845E-03  0.30367086E-03 -0.28558232E-03
 -0.96646370E-04  0.21576754E-03 -0.10432098E-04
  0.19200679E-03 -0.19869633E-03  0.13287231E-03
 -0.65418172E-03  0.49315222E-04 -0.15748119E-03
 -0.64040413E-04 -0.12276596E-03  0.33405336E-03
 -0.92267201E-04  0.19893848E-03 -0.93761478E-04
 -0.80797282E-04 -0.14141648E-03 -0.42757049E-04
  0.15975531E-03 -0.92661715E-04  0.74805308E-04
 -0.20174080E-03 -0.41552465E-03 -0.35833328E-04
  0.34192170E-03  0.55161055E-05 -0.13103431E-03
  0.16748375E-03 -0.10720851E-03  0.40427435E-04
  0.47526212E-03 -0.33168035E-03  0.30192116E-03
  0.26946866E-04  0.73111746E-04 -0.53636908E-05
 -0.30056171E-03 -0.17810461E-03  0.17896755E-03
  0.15003803E-03 -0.46879812E-03  0.96205684E-04
  0.21002955E-03 -0.21417458E-03 -0.12708013E-03
  0.23249501E-04  0.14595664E-03 -0.81510546E-05
  0.13376781E-03  0.19431318E-03  0.16025136E-04
  0.27770395E-03 -0.30106530E-03 -0.29233136E-03
 -0.19352848E-03 -0.67874030E-04  0.27452303E-03
  0.31915375E-03  0.17462039E-03 -0.59947705E-04
 -0.11818750E-03  0.14914839E-03 -0.32924088E-03
  0.54922680E-04 -0.52244946E-04  0.40421154E-03
  0.17806468E-03 -0.37729134E-03  0.19935846E-03
  0.60056954E-03  0.15663174E-03 -0.53091739E-03
 -0.96885370E-04  0.34443629E-04  0.10817842E-03
  0.16615771E-03  0.61485909E-04  0.65770971E-04
  0.88252969E-05 -0.36471219E-05  0.12113687E-03
 -0.20780720E-04  0.73760133E-04  0.23798076E-03
  0.70941366E-04  0.24162549E-03 -0.68450826E-04
 -0.43119262E-03  0.76665097E-04  0.40331613E-04
 -0.30231519E-03 -0.44002846E-05 -0.79775991E-04
 -0.37516576E-03 -0.38871278E-03  0.61548108E-03
  0.29468328E-03 -0.21826700E-03  0.14328966E-03
  0.50261784E-03  0.66138083E-03 -0.34021574E-03
 -0.22678134E-04  0.28879609E-03  0.70362430E-05
 -0.33029584E-03 -0.10943439E-03  0.23405623E-03
 -0.31095670E-03 -0.21495183E-03  0.94854152E-04
  0.14027879E-03 -0.22027295E-03 -0.20635274E-03
 -0.59531993E-04 -0.26179811E-03 -0.10614815E-03
  0.15675788E-03  0.48745816E-04 -0.24078417E-04
  0.21777055E-03 -0.20227801E-03  0.51714545E-03
 -0.21416436E-03  0.10506415E-03 -0.46133315E-04
  0.74997288E-04 -0.10660358E-03 -0.33029238E-04
  0.60280413E-03 -0.11157988E-03  0.94053747E-04
 -0.29954527E-03 -0.22263734E-04  0.57867358E-04
 -0.25939992E-03  0.15458107E-03  0.43361951E-03
 -0.36094486E-03  0.33346886E-03 -0.51483118E-03
  0.18434054E-03 -0.14373432E-03 -0.32488006E-03
 -0.30415127E-03 -0.40570698E-03  0.63028073E-03
 -0.21238898E-04  0.11727350E-03  0.29183501E-03
  0.18592937E-03  0.14878161E-03 -0.20452622E-03
  0.28746759E-03 -0.30940733E-03 -0.55556711E-04
 -0.16091657E-03  0.13164305E-03  0.11828193E-03
 -0.25528643E-03 -0.56107829E-04  0.48641827E-03
 -0.53598575E-03  0.37384701E-03 -0.17022508E-03
  0.22595044E-03 -0.15364733E-03  0.60178229E-04
 -0.99228423E-04 -0.21249164E-03  0.38484955E-03
  0.51991654E-03  0.14688004E-03 -0.63232037E-04
 -0.11616038E-03  0.65143891E-03 -0.22737780E-03
  0.36408914E-04  0.18227155E-03 -0.12508279E-03
 -0.48373143E-04 -0.62726457E-04 -0.94766299E-04
 -0.12100246E-03 -0.17690594E-03  0.18364574E-03
 -0.15140406E-03 -0.19521765E-03  0.16175843E-04
 -0.41642437E-03  0.30154244E-04 -0.20456446E-03
  0.15112922E-03 -0.12176432E-03 -0.14621673E-03
  0.78672328E-04  0.25223398E-03 -0.74809202E-04
 -0.17581637E-03 -0.25878550E-03 -0.38082162E-04
 -0.45510112E-04  0.38223510E-03 -0.11262184E-03
  0.70995750E-04  0.27833377E-04 -0.27777234E-03
 -0.31083367E-03 -0.28330111E-03 -0.21384869E-03
 -0.13728963E-03 -0.48355370E-03 -0.13397455E-04
 -0.31372474E-03 -0.17580767E-03  0.35628488E-03
 -0.16649671E-03 -0.31591344E-03  0.88751108E-04
 -0.21868404E-03  0.24916510E-04  0.21805241E-03
  0.59715498E-04 -0.55412987E-04 -0.44550978E-03
 -0.10747443E-03  0.43287341E-03  0.25786627E-04
 -0.22732751E-03  0.33444920E-03  0.22599785E-04
  0.46862672E-03 -0.45331094E-04 -0.22180183E-03
 -0.30659928E-03 -0.10332522E-04  0.26874241E-04
 -0.29083269E-03 -0.36017477E-04 -0.35610512E-03
  0.15613440E-03  0.15662793E-03  0.29688510E-03
 -0.14510198E-03  0.18760202E-03  0.32200617E-03
  0.70887572E-04 -0.97816223E-04 -0.33748945E-03
  0.64071931E-03 -0.11459296E-03 -0.19341066E-04
  0.00000000E+00  0.00000000E+00  0.00000000E+00
  0.00000000E+00  0.00000000E+00  0.00000000E+00
  0.00000000E+00  0.00000000E+00  0.00000000E+00
  0.00000000E+00  0.00000000E+00  0.00000000E+00
  0.00000000E+00  0.00000000E+00  0.00000000E+00
  0.00000000E+00  0.00000000E+00  0.00000000E+00
  0.00000000E+00  0.00000000E+00  0.00000000E+00
  0.00000000E+00  0.00000000E+00  0.00000000E+00
  0.00000000E+00  0.00000000E+00  0.00000000E+00
  0.00000000E+00  0.00000000E+00  0.00000000E+00
  0.00000000E+00  0.00000000E+00  0.00000000E+00
  0.00000000E+00  0.00000000E+00  0.00000000E+00
  0.00000000E+00  0.00000000E+00  0.00000000E+00
  0.00000000E+00  0.00000000E+00  0.00000000E+00
  0.00000000E+00  0.00000000E+00  0.00000000E+00
  0.00000000E+00  0.00000000E+00  0.00000000E+00
  0.00000000E+00  0.00000000E+00  0.00000000E+00
  0.00000000E+00  0.00000000E+00  0.00000000E+00
  0.00000000E+00  0.00000000E+00  0.00000000E+00
  0.00000000E+00  0.00000000E+00  0.00000000E+00
  0.00000000E+00  0.00000000E+00  0.00000000E+00
  0.00000000E+00  0.00000000E+00  0.00000000E+00
  0.00000000E+00  0.00000000E+00  0.00000000E+00
  0.00000000E+00  0.00000000E+00  0.00000000E+00
  0.00000000E+00  0.00000000E+00  0.00000000E+00
  0.00000000E+00  0.00000000E+00  0.00000000E+00
  0.00000000E+00  0.00000000E+00  0.00000000E+00
  0.00000000E+00  0.00000000E+00  0.00000000E+00
  0.00000000E+00  0.00000000E+00  0.00000000E+00
  0.00000000E+00  0.00000000E+00  0.00000000E+00
  0.00000000E+00  0.00000000E+00  0.00000000E+00
  0.00000000E+00  0.00000000E+00  0.00000000E+00
  0.00000000E+00  0.00000000E+00  0.00000000E+00
  0.00000000E+00  0.00000000E+00  0.00000000E+00
  0.00000000E+00  0.00000000E+00  0.00000000E+00
  0.00000000E+00  0.00000000E+00  0.00000000E+00
  0.00000000E+00  0.00000000E+00  0.00000000E+00
  0.00000000E+00  0.00000000E+00  0.00000000E+00
  0.00000000E+00  0.00000000E+00  0.00000000E+00
  0.00000000E+00  0.00000000E+00  0.00000000E+00
  0.00000000E+00  0.00000000E+00  0.00000000E+00
  0.00000000E+00  0.00000000E+00  0.00000000E+00
  0.00000000E+00  0.00000000E+00  0.00000000E+00
  0.00000000E+00  0.00000000E+00  0.00000000E+00
  0.00000000E+00  0.00000000E+00  0.00000000E+00
  0.00000000E+00  0.00000000E+00  0.00000000E+00
  0.00000000E+00  0.00000000E+00  0.00000000E+00
  0.00000000E+00  0.00000000E+00  0.00000000E+00
  0.00000000E+00  0.00000000E+00  0.00000000E+00
  0.00000000E+00  0.00000000E+00  0.00000000E+00
  0.00000000E+00  0.00000000E+00  0.00000000E+00
  0.00000000E+00  0.00000000E+00  0.00000000E+00
  0.00000000E+00  0.00000000E+00  0.00000000E+00
  0.00000000E+00  0.00000000E+00  0.00000000E+00
  0.00000000E+00  0.00000000E+00  0.00000000E+00
  0.00000000E+00  0.00000000E+00  0.00000000E+00
  0.00000000E+00  0.00000000E+00  0.00000000E+00
  0.00000000E+00  0.00000000E+00  0.00000000E+00
  0.00000000E+00  0.00000000E+00  0.00000000E+00
  0.00000000E+00  0.00000000E+00  0.00000000E+00
  0.00000000E+00  0.00000000E+00  0.00000000E+00
  0.00000000E+00  0.00000000E+00  0.00000000E+00
  0.00000000E+00  0.00000000E+00  0.00000000E+00
  0.00000000E+00  0.00000000E+00  0.00000000E+00
  0.00000000E+00  0.00000000E+00  0.00000000E+00
  0.00000000E+00  0.00000000E+00  0.00000000E+00
  0.00000000E+00  0.00000000E+00  0.00000000E+00
  0.00000000E+00  0.00000000E+00  0.00000000E+00
  0.00000000E+00  0.00000000E+00  0.00000000E+00
  0.00000000E+00  0.00000000E+00  0.00000000E+00
  0.00000000E+00  0.00000000E+00  0.00000000E+00
  0.00000000E+00  0.00000000E+00  0.00000000E+00
  0.00000000E+00  0.00000000E+00  0.00000000E+00
  0.00000000E+00  0.00000000E+00  0.00000000E+00
  0.00000000E+00  0.00000000E+00  0.00000000E+00
  0.00000000E+00  0.00000000E+00  0.00000000E+00
  0.00000000E+00  0.00000000E+00  0.00000000E+00
  0.00000000E+00  0.00000000E+00  0.00000000E+00
  0.00000000E+00  0.00000000E+00  0.00000000E+00
  0.00000000E+00  0.00000000E+00  0.00000000E+00
  0.00000000E+00  0.00000000E+00  0.00000000E+00
  0.00000000E+00  0.00000000E+00  0.00000000E+00
  0.00000000E+00  0.00000000E+00  0.00000000E+00
  0.00000000E+00  0.00000000E+00  0.00000000E+00
  0.00000000E+00  0.00000000E+00  0.00000000E+00
  0.00000000E+00  0.00000000E+00  0.00000000E+00
  0.00000000E+00  0.00000000E+00  0.00000000E+00
  0.00000000E+00  0.00000000E+00  0.00000000E+00
  0.00000000E+00  0.00000000E+00  0.00000000E+00
  0.00000000E+00  0.00000000E+00  0.00000000E+00
  0.00000000E+00  0.00000000E+00  0.00000000E+00
  0.00000000E+00  0.00000000E+00  0.00000000E+00
  0.00000000E+00  0.00000000E+00  0.00000000E+00
  0.00000000E+00  0.00000000E+00  0.00000000E+00
  0.00000000E+00  0.00000000E+00  0.00000000E+00
  0.00000000E+00  0.00000000E+00  0.00000000E+00
  0.00000000E+00  0.00000000E+00  0.00000000E+00
  0.00000000E+00  0.00000000E+00  0.00000000E+00
  0.00000000E+00  0.00000000E+00  0.00000000E+00
  0.00000000E+00  0.00000000E+00  0.00000000E+00
  0.00000000E+00  0.00000000E+00  0.00000000E+00
  0.00000000E+00  0.00000000E+00  0.00000000E+00
  0.00000000E+00  0.00000000E+00  0.00000000E+00
  0.00000000E+00  0.00000000E+00  0.00000000E+00
  0.00000000E+00  0.00000000E+00  0.00000000E+00
  0.00000000E+00  0.00000000E+00  0.00000000E+00
  0.00000000E+00  0.00000000E+00  0.00000000E+00
  0.00000000E+00  0.00000000E+00  0.00000000E+00
  0.00000000E+00  0.00000000E+00  0.00000000E+00
  0.00000000E+00  0.00000000E+00  0.00000000E+00
  0.00000000E+00  0.00000000E+00  0.00000000E+00
  0.00000000E+00  0.00000000E+00  0.00000000E+00
