B96 C16                                 
    1.000000000000000     
     9.1193964951561988    0.0260587297265276    4.1022243913428289
     2.6630584290687254    8.7219381471570365    4.1022246577918464
     0.0350971323421739    0.0260592325711828    9.9995192995972886
   B    C 
    96    16
Direct
  0.1597788122892096  0.3995856812329262  0.3995856812289585
  0.1597788122892096  0.3995856812329262  0.8995856812289585
  0.1597788122892096  0.8995856812329261  0.3995856812289585
  0.1597788122892096  0.8995856812329261  0.8995856812289585
  0.6597788122892098  0.3995856812329262  0.3995856812289585
  0.6597788122892098  0.3995856812329262  0.8995856812289585
  0.6597788122892098  0.8995856812329261  0.3995856812289585
  0.6597788122892098  0.8995856812329261  0.8995856812289585
  0.3995856812300628  0.3995856812359492  0.1597788122846845
  0.3995856812300628  0.3995856812359492  0.6597788122846844
  0.3995856812300628  0.8995856812359491  0.1597788122846845
  0.3995856812300628  0.8995856812359491  0.6597788122846844
  0.8995856812300629  0.3995856812359492  0.1597788122846845
  0.8995856812300629  0.3995856812359492  0.6597788122846844
  0.8995856812300629  0.8995856812359491  0.1597788122846845
  0.8995856812300629  0.8995856812359491  0.6597788122846844
  0.3995856812281303  0.1597788122946436  0.3995856812300490
  0.3995856812281303  0.1597788122946436  0.8995856812300489
  0.3995856812281303  0.6597788122946436  0.3995856812300490
  0.3995856812281303  0.6597788122946436  0.8995856812300489
  0.8995856812281299  0.1597788122946436  0.3995856812300490
  0.8995856812281299  0.1597788122946436  0.8995856812300489
  0.8995856812281299  0.6597788122946436  0.3995856812300490
  0.8995856812281299  0.6597788122946436  0.8995856812300489
  0.3402211877107903  0.1004143187670738  0.1004143187710414
  0.3402211877107903  0.1004143187670738  0.6004143187710415
  0.3402211877107903  0.6004143187670739  0.1004143187710414
  0.3402211877107903  0.6004143187670739  0.6004143187710415
  0.8402211877107902  0.1004143187670738  0.1004143187710414
  0.8402211877107902  0.1004143187670738  0.6004143187710415
  0.8402211877107902  0.6004143187670739  0.1004143187710414
  0.8402211877107902  0.6004143187670739  0.6004143187710415
  0.1004143187699371  0.1004143187640508  0.3402211877153156
  0.1004143187699371  0.1004143187640508  0.8402211877153156
  0.1004143187699371  0.6004143187640509  0.3402211877153156
  0.1004143187699371  0.6004143187640509  0.8402211877153156
  0.6004143187699371  0.1004143187640508  0.3402211877153156
  0.6004143187699371  0.1004143187640508  0.8402211877153156
  0.6004143187699371  0.6004143187640509  0.3402211877153156
  0.6004143187699371  0.6004143187640509  0.8402211877153156
  0.1004143187718698  0.3402211877053565  0.1004143187699512
  0.1004143187718698  0.3402211877053565  0.6004143187699511
  0.1004143187718698  0.8402211877053564  0.1004143187699512
  0.1004143187718698  0.8402211877053564  0.6004143187699511
  0.6004143187718701  0.3402211877053565  0.1004143187699512
  0.6004143187718701  0.3402211877053565  0.6004143187699511
  0.6004143187718701  0.8402211877053564  0.1004143187699512
  0.6004143187718701  0.8402211877053564  0.6004143187699511
  0.3327368194471439 -0.0005905809799701 -0.0005905809851298
  0.3327368194471439 -0.0005905809799701  0.4994094190148701
  0.3327368194471439  0.4994094190200299 -0.0005905809851298
  0.3327368194471439  0.4994094190200299  0.4994094190148701
  0.8327368194471439 -0.0005905809799702 -0.0005905809851298
  0.8327368194471439 -0.0005905809799702  0.4994094190148701
  0.8327368194471439  0.4994094190200299 -0.0005905809851298
  0.8327368194471439  0.4994094190200299  0.4994094190148701
 -0.0005905809843080 -0.0005905809811923  0.3327368194477136
 -0.0005905809843080 -0.0005905809811923  0.8327368194477135
 -0.0005905809843080  0.4994094190188077  0.3327368194477136
 -0.0005905809843080  0.4994094190188077  0.8327368194477135
  0.4994094190156920 -0.0005905809811923  0.3327368194477136
  0.4994094190156920 -0.0005905809811923  0.8327368194477135
  0.4994094190156920  0.4994094190188077  0.3327368194477136
  0.4994094190156920  0.4994094190188077  0.8327368194477135
 -0.0005905809835392  0.3327368194504313 -0.0005905809855831
 -0.0005905809835392  0.3327368194504313  0.4994094190144169
 -0.0005905809835392  0.8327368194504313 -0.0005905809855831
 -0.0005905809835392  0.8327368194504313  0.4994094190144169
  0.4994094190164609  0.3327368194504313 -0.0005905809855831
  0.4994094190164609  0.3327368194504313  0.4994094190144169
  0.4994094190164609  0.8327368194504313 -0.0005905809855831
  0.4994094190164609  0.8327368194504313  0.4994094190144169
  0.1672631805528561  0.0005905809799701  0.0005905809851297
  0.1672631805528561  0.0005905809799701  0.5005905809851298
  0.1672631805528561  0.5005905809799700  0.0005905809851297
  0.1672631805528561  0.5005905809799700  0.5005905809851298
  0.6672631805528561  0.0005905809799701  0.0005905809851297
  0.6672631805528561  0.0005905809799701  0.5005905809851298
  0.6672631805528561  0.5005905809799700  0.0005905809851297
  0.6672631805528561  0.5005905809799700  0.5005905809851298
  0.0005905809843079  0.0005905809811922  0.1672631805522865
  0.0005905809843079  0.0005905809811922  0.6672631805522865
  0.0005905809843079  0.5005905809811922  0.1672631805522865
  0.0005905809843079  0.5005905809811922  0.6672631805522865
  0.5005905809843078  0.0005905809811922  0.1672631805522865
  0.5005905809843078  0.0005905809811922  0.6672631805522865
  0.5005905809843078  0.5005905809811922  0.1672631805522865
  0.5005905809843078  0.5005905809811922  0.6672631805522865
  0.0005905809835391  0.1672631805495687  0.0005905809855830
  0.0005905809835391  0.1672631805495687  0.5005905809855833
  0.0005905809835391  0.6672631805495687  0.0005905809855830
  0.0005905809835391  0.6672631805495687  0.5005905809855833
  0.5005905809835390  0.1672631805495687  0.0005905809855830
  0.5005905809835390  0.1672631805495687  0.5005905809855833
  0.5005905809835390  0.6672631805495687  0.0005905809855830
  0.5005905809835390  0.6672631805495687  0.5005905809855833
  0.3132154737085903  0.3132154737136594  0.3132154737074230
  0.3132154737085903  0.3132154737136594  0.8132154737074231
  0.3132154737085903  0.8132154737136592  0.3132154737074230
  0.3132154737085903  0.8132154737136592  0.8132154737074231
  0.8132154737085902  0.3132154737136594  0.3132154737074230
  0.8132154737085902  0.3132154737136594  0.8132154737074231
  0.8132154737085902  0.8132154737136592  0.3132154737074230
  0.8132154737085902  0.8132154737136592  0.8132154737074231
  0.1867845262914098  0.1867845262863407  0.1867845262925770
  0.1867845262914098  0.1867845262863407  0.6867845262925769
  0.1867845262914098  0.6867845262863408  0.1867845262925770
  0.1867845262914098  0.6867845262863408  0.6867845262925769
  0.6867845262914098  0.1867845262863407  0.1867845262925770
  0.6867845262914098  0.1867845262863407  0.6867845262925769
  0.6867845262914098  0.6867845262863408  0.1867845262925770
  0.6867845262914098  0.6867845262863408  0.6867845262925769
 
  0.00000000E+00  0.00000000E+00  0.00000000E+00
  0.00000000E+00  0.00000000E+00  0.00000000E+00
  0.00000000E+00  0.00000000E+00  0.00000000E+00
  0.00000000E+00  0.00000000E+00  0.00000000E+00
  0.00000000E+00  0.00000000E+00  0.00000000E+00
  0.00000000E+00  0.00000000E+00  0.00000000E+00
  0.00000000E+00  0.00000000E+00  0.00000000E+00
  0.00000000E+00  0.00000000E+00  0.00000000E+00
  0.00000000E+00  0.00000000E+00  0.00000000E+00
  0.00000000E+00  0.00000000E+00  0.00000000E+00
  0.00000000E+00  0.00000000E+00  0.00000000E+00
  0.00000000E+00  0.00000000E+00  0.00000000E+00
  0.00000000E+00  0.00000000E+00  0.00000000E+00
  0.00000000E+00  0.00000000E+00  0.00000000E+00
  0.00000000E+00  0.00000000E+00  0.00000000E+00
  0.00000000E+00  0.00000000E+00  0.00000000E+00
  0.00000000E+00  0.00000000E+00  0.00000000E+00
  0.00000000E+00  0.00000000E+00  0.00000000E+00
  0.00000000E+00  0.00000000E+00  0.00000000E+00
  0.00000000E+00  0.00000000E+00  0.00000000E+00
  0.00000000E+00  0.00000000E+00  0.00000000E+00
  0.00000000E+00  0.00000000E+00  0.00000000E+00
  0.00000000E+00  0.00000000E+00  0.00000000E+00
  0.00000000E+00  0.00000000E+00  0.00000000E+00
  0.00000000E+00  0.00000000E+00  0.00000000E+00
  0.00000000E+00  0.00000000E+00  0.00000000E+00
  0.00000000E+00  0.00000000E+00  0.00000000E+00
  0.00000000E+00  0.00000000E+00  0.00000000E+00
  0.00000000E+00  0.00000000E+00  0.00000000E+00
  0.00000000E+00  0.00000000E+00  0.00000000E+00
  0.00000000E+00  0.00000000E+00  0.00000000E+00
  0.00000000E+00  0.00000000E+00  0.00000000E+00
  0.00000000E+00  0.00000000E+00  0.00000000E+00
  0.00000000E+00  0.00000000E+00  0.00000000E+00
  0.00000000E+00  0.00000000E+00  0.00000000E+00
  0.00000000E+00  0.00000000E+00  0.00000000E+00
  0.00000000E+00  0.00000000E+00  0.00000000E+00
  0.00000000E+00  0.00000000E+00  0.00000000E+00
  0.00000000E+00  0.00000000E+00  0.00000000E+00
  0.00000000E+00  0.00000000E+00  0.00000000E+00
  0.00000000E+00  0.00000000E+00  0.00000000E+00
  0.00000000E+00  0.00000000E+00  0.00000000E+00
  0.00000000E+00  0.00000000E+00  0.00000000E+00
  0.00000000E+00  0.00000000E+00  0.00000000E+00
  0.00000000E+00  0.00000000E+00  0.00000000E+00
  0.00000000E+00  0.00000000E+00  0.00000000E+00
  0.00000000E+00  0.00000000E+00  0.00000000E+00
  0.00000000E+00  0.00000000E+00  0.00000000E+00
  0.00000000E+00  0.00000000E+00  0.00000000E+00
  0.00000000E+00  0.00000000E+00  0.00000000E+00
  0.00000000E+00  0.00000000E+00  0.00000000E+00
  0.00000000E+00  0.00000000E+00  0.00000000E+00
  0.00000000E+00  0.00000000E+00  0.00000000E+00
  0.00000000E+00  0.00000000E+00  0.00000000E+00
  0.00000000E+00  0.00000000E+00  0.00000000E+00
  0.00000000E+00  0.00000000E+00  0.00000000E+00
  0.00000000E+00  0.00000000E+00  0.00000000E+00
  0.00000000E+00  0.00000000E+00  0.00000000E+00
  0.00000000E+00  0.00000000E+00  0.00000000E+00
  0.00000000E+00  0.00000000E+00  0.00000000E+00
  0.00000000E+00  0.00000000E+00  0.00000000E+00
  0.00000000E+00  0.00000000E+00  0.00000000E+00
  0.00000000E+00  0.00000000E+00  0.00000000E+00
  0.00000000E+00  0.00000000E+00  0.00000000E+00
  0.00000000E+00  0.00000000E+00  0.00000000E+00
  0.00000000E+00  0.00000000E+00  0.00000000E+00
  0.00000000E+00  0.00000000E+00  0.00000000E+00
  0.00000000E+00  0.00000000E+00  0.00000000E+00
  0.00000000E+00  0.00000000E+00  0.00000000E+00
  0.00000000E+00  0.00000000E+00  0.00000000E+00
  0.00000000E+00  0.00000000E+00  0.00000000E+00
  0.00000000E+00  0.00000000E+00  0.00000000E+00
  0.00000000E+00  0.00000000E+00  0.00000000E+00
  0.00000000E+00  0.00000000E+00  0.00000000E+00
  0.00000000E+00  0.00000000E+00  0.00000000E+00
  0.00000000E+00  0.00000000E+00  0.00000000E+00
  0.00000000E+00  0.00000000E+00  0.00000000E+00
  0.00000000E+00  0.00000000E+00  0.00000000E+00
  0.00000000E+00  0.00000000E+00  0.00000000E+00
  0.00000000E+00  0.00000000E+00  0.00000000E+00
  0.00000000E+00  0.00000000E+00  0.00000000E+00
  0.00000000E+00  0.00000000E+00  0.00000000E+00
  0.00000000E+00  0.00000000E+00  0.00000000E+00
  0.00000000E+00  0.00000000E+00  0.00000000E+00
  0.00000000E+00  0.00000000E+00  0.00000000E+00
  0.00000000E+00  0.00000000E+00  0.00000000E+00
  0.00000000E+00  0.00000000E+00  0.00000000E+00
  0.00000000E+00  0.00000000E+00  0.00000000E+00
  0.00000000E+00  0.00000000E+00  0.00000000E+00
  0.00000000E+00  0.00000000E+00  0.00000000E+00
  0.00000000E+00  0.00000000E+00  0.00000000E+00
  0.00000000E+00  0.00000000E+00  0.00000000E+00
  0.00000000E+00  0.00000000E+00  0.00000000E+00
  0.00000000E+00  0.00000000E+00  0.00000000E+00
  0.00000000E+00  0.00000000E+00  0.00000000E+00
  0.00000000E+00  0.00000000E+00  0.00000000E+00
  0.00000000E+00  0.00000000E+00  0.00000000E+00
  0.00000000E+00  0.00000000E+00  0.00000000E+00
  0.00000000E+00  0.00000000E+00  0.00000000E+00
  0.00000000E+00  0.00000000E+00  0.00000000E+00
  0.00000000E+00  0.00000000E+00  0.00000000E+00
  0.00000000E+00  0.00000000E+00  0.00000000E+00
  0.00000000E+00  0.00000000E+00  0.00000000E+00
  0.00000000E+00  0.00000000E+00  0.00000000E+00
  0.00000000E+00  0.00000000E+00  0.00000000E+00
  0.00000000E+00  0.00000000E+00  0.00000000E+00
  0.00000000E+00  0.00000000E+00  0.00000000E+00
  0.00000000E+00  0.00000000E+00  0.00000000E+00
  0.00000000E+00  0.00000000E+00  0.00000000E+00
  0.00000000E+00  0.00000000E+00  0.00000000E+00
  0.00000000E+00  0.00000000E+00  0.00000000E+00
  0.00000000E+00  0.00000000E+00  0.00000000E+00
