B96 C16                                 
    1.000000000000000     
     9.4651991779113160    0.0899024097114397    4.3493516332152797
     2.8249476487609728    9.0301699678098259    4.3472958518332723
     0.1225402814755008    0.0888250088615326   10.4098486072287848
   B    C 
    96    16
Direct
  0.1603087028273581  0.4005344484826175  0.4005266015086612
  0.1603087028273581  0.4005344484826175  0.9005266015086610
  0.1603087028273581  0.9005344484826174  0.4005266015086612
  0.1603087028273581  0.9005344484826174  0.9005266015086610
  0.6603087028273580  0.4005344484826175  0.4005266015086612
  0.6603087028273580  0.4005344484826175  0.9005266015086610
  0.6603087028273580  0.9005344484826174  0.4005266015086612
  0.6603087028273580  0.9005344484826174  0.9005266015086610
  0.4005648196011962  0.4005631543787280  0.1603760046757502
  0.4005648196011962  0.4005631543787280  0.6603760046757501
  0.4005648196011962  0.9005631543787282  0.1603760046757502
  0.4005648196011962  0.9005631543787282  0.6603760046757501
  0.9005648196011963  0.4005631543787280  0.1603760046757502
  0.9005648196011963  0.4005631543787280  0.6603760046757501
  0.9005648196011963  0.9005631543787282  0.1603760046757502
  0.9005648196011963  0.9005631543787282  0.6603760046757501
  0.4005599248987266  0.1603552601424171  0.4005490130001382
  0.4005599248987266  0.1603552601424171  0.9005490130001383
  0.4005599248987266  0.6603552601424172  0.4005490130001382
  0.4005599248987266  0.6603552601424172  0.9005490130001383
  0.9005599248987263  0.1603552601424171  0.4005490130001382
  0.9005599248987263  0.1603552601424171  0.9005490130001383
  0.9005599248987263  0.6603552601424172  0.4005490130001382
  0.9005599248987263  0.6603552601424172  0.9005490130001383
  0.3396912971726420  0.0994655515173826  0.0994733984913388
  0.3396912971726420  0.0994655515173826  0.5994733984913390
  0.3396912971726420  0.5994655515173826  0.0994733984913388
  0.3396912971726420  0.5994655515173826  0.5994733984913390
  0.8396912971726420  0.0994655515173826  0.0994733984913388
  0.8396912971726420  0.0994655515173826  0.5994733984913390
  0.8396912971726420  0.5994655515173826  0.0994733984913388
  0.8396912971726420  0.5994655515173826  0.5994733984913390
  0.0994351803988039  0.0994368456212720  0.3396239953242498
  0.0994351803988039  0.0994368456212720  0.8396239953242499
  0.0994351803988039  0.5994368456212718  0.3396239953242498
  0.0994351803988039  0.5994368456212718  0.8396239953242499
  0.5994351803988037  0.0994368456212720  0.3396239953242498
  0.5994351803988037  0.0994368456212720  0.8396239953242499
  0.5994351803988037  0.5994368456212718  0.3396239953242498
  0.5994351803988037  0.5994368456212718  0.8396239953242499
  0.0994400751012735  0.3396447398575828  0.0994509869998618
  0.0994400751012735  0.3396447398575828  0.5994509869998617
  0.0994400751012735  0.8396447398575828  0.0994509869998618
  0.0994400751012735  0.8396447398575828  0.5994509869998617
  0.5994400751012737  0.3396447398575828  0.0994509869998618
  0.5994400751012737  0.3396447398575828  0.5994509869998617
  0.5994400751012737  0.8396447398575828  0.0994509869998618
  0.5994400751012737  0.8396447398575828  0.5994509869998617
  0.3319527262713344  0.0004966717065840  0.0005011169720555
  0.3319527262713344  0.0004966717065840  0.5005011169720552
  0.3319527262713344  0.5004966717065840  0.0005011169720555
  0.3319527262713344  0.5004966717065840  0.5005011169720552
  0.8319527262713344  0.0004966717065840  0.0005011169720555
  0.8319527262713344  0.0004966717065840  0.5005011169720552
  0.8319527262713344  0.5004966717065840  0.0005011169720555
  0.8319527262713344  0.5004966717065840  0.5005011169720552
  0.0003919843562686  0.0004129912150396  0.3321204636416159
  0.0003919843562686  0.0004129912150396  0.8321204636416160
  0.0003919843562686  0.5004129912150397  0.3321204636416159
  0.0003919843562686  0.5004129912150397  0.8321204636416160
  0.5003919843562685  0.0004129912150396  0.3321204636416159
  0.5003919843562685  0.0004129912150396  0.8321204636416160
  0.5003919843562685  0.5004129912150397  0.3321204636416159
  0.5003919843562685  0.5004129912150397  0.8321204636416160
  0.0004160621674583  0.3320745000925657  0.0004409216005798
  0.0004160621674583  0.3320745000925657  0.5004409216005800
  0.0004160621674583  0.8320745000925657  0.0004409216005798
  0.0004160621674583  0.8320745000925657  0.5004409216005800
  0.5004160621674587  0.3320745000925657  0.0004409216005798
  0.5004160621674587  0.3320745000925657  0.5004409216005800
  0.5004160621674587  0.8320745000925657  0.0004409216005798
  0.5004160621674587  0.8320745000925657  0.5004409216005800
  0.1680472737286656  0.9995033282934160  0.9994988830279448
  0.1680472737286656  0.9995033282934160  0.4994988830279446
  0.1680472737286656  0.4995033282934160  0.9994988830279448
  0.1680472737286656  0.4995033282934160  0.4994988830279446
  0.6680472737286656  0.9995033282934160  0.9994988830279448
  0.6680472737286656  0.9995033282934160  0.4994988830279446
  0.6680472737286656  0.4995033282934160  0.9994988830279448
  0.6680472737286656  0.4995033282934160  0.4994988830279446
  0.9996080156437315  0.9995870087849603  0.1678795363583840
  0.9996080156437315  0.9995870087849603  0.6678795363583840
  0.9996080156437315  0.4995870087849606  0.1678795363583840
  0.9996080156437315  0.4995870087849606  0.6678795363583840
  0.4996080156437314  0.9995870087849603  0.1678795363583840
  0.4996080156437314  0.9995870087849603  0.6678795363583840
  0.4996080156437314  0.4995870087849606  0.1678795363583840
  0.4996080156437314  0.4995870087849606  0.6678795363583840
  0.9995839378325413  0.1679254999074344  0.9995590783994200
  0.9995839378325413  0.1679254999074344  0.4995590783994202
  0.9995839378325413  0.6679254999074343  0.9995590783994200
  0.9995839378325413  0.6679254999074343  0.4995590783994202
  0.4995839378325417  0.1679254999074344  0.9995590783994200
  0.4995839378325417  0.1679254999074344  0.4995590783994202
  0.4995839378325417  0.6679254999074343  0.9995590783994200
  0.4995839378325417  0.6679254999074343  0.4995590783994202
  0.3155915319112873  0.3155877574893020  0.3156004806869907
  0.3155915319112873  0.3155877574893020  0.8156004806869910
  0.3155915319112873  0.8155877574893019  0.3156004806869907
  0.3155915319112873  0.8155877574893019  0.8156004806869910
  0.8155915319112870  0.3155877574893020  0.3156004806869907
  0.8155915319112870  0.3155877574893020  0.8156004806869910
  0.8155915319112870  0.8155877574893019  0.3156004806869907
  0.8155915319112870  0.8155877574893019  0.8156004806869910
  0.1844084680887127  0.1844122425106980  0.1843995193130094
  0.1844084680887127  0.1844122425106980  0.6843995193130090
  0.1844084680887127  0.6844122425106981  0.1843995193130094
  0.1844084680887127  0.6844122425106981  0.6843995193130090
  0.6844084680887130  0.1844122425106980  0.1843995193130094
  0.6844084680887130  0.1844122425106980  0.6843995193130090
  0.6844084680887130  0.6844122425106981  0.1843995193130094
  0.6844084680887130  0.6844122425106981  0.6843995193130090
 
  0.00000000E+00  0.00000000E+00  0.00000000E+00
  0.00000000E+00  0.00000000E+00  0.00000000E+00
  0.00000000E+00  0.00000000E+00  0.00000000E+00
  0.00000000E+00  0.00000000E+00  0.00000000E+00
  0.00000000E+00  0.00000000E+00  0.00000000E+00
  0.00000000E+00  0.00000000E+00  0.00000000E+00
  0.00000000E+00  0.00000000E+00  0.00000000E+00
  0.00000000E+00  0.00000000E+00  0.00000000E+00
  0.00000000E+00  0.00000000E+00  0.00000000E+00
  0.00000000E+00  0.00000000E+00  0.00000000E+00
  0.00000000E+00  0.00000000E+00  0.00000000E+00
  0.00000000E+00  0.00000000E+00  0.00000000E+00
  0.00000000E+00  0.00000000E+00  0.00000000E+00
  0.00000000E+00  0.00000000E+00  0.00000000E+00
  0.00000000E+00  0.00000000E+00  0.00000000E+00
  0.00000000E+00  0.00000000E+00  0.00000000E+00
  0.00000000E+00  0.00000000E+00  0.00000000E+00
  0.00000000E+00  0.00000000E+00  0.00000000E+00
  0.00000000E+00  0.00000000E+00  0.00000000E+00
  0.00000000E+00  0.00000000E+00  0.00000000E+00
  0.00000000E+00  0.00000000E+00  0.00000000E+00
  0.00000000E+00  0.00000000E+00  0.00000000E+00
  0.00000000E+00  0.00000000E+00  0.00000000E+00
  0.00000000E+00  0.00000000E+00  0.00000000E+00
  0.00000000E+00  0.00000000E+00  0.00000000E+00
  0.00000000E+00  0.00000000E+00  0.00000000E+00
  0.00000000E+00  0.00000000E+00  0.00000000E+00
  0.00000000E+00  0.00000000E+00  0.00000000E+00
  0.00000000E+00  0.00000000E+00  0.00000000E+00
  0.00000000E+00  0.00000000E+00  0.00000000E+00
  0.00000000E+00  0.00000000E+00  0.00000000E+00
  0.00000000E+00  0.00000000E+00  0.00000000E+00
  0.00000000E+00  0.00000000E+00  0.00000000E+00
  0.00000000E+00  0.00000000E+00  0.00000000E+00
  0.00000000E+00  0.00000000E+00  0.00000000E+00
  0.00000000E+00  0.00000000E+00  0.00000000E+00
  0.00000000E+00  0.00000000E+00  0.00000000E+00
  0.00000000E+00  0.00000000E+00  0.00000000E+00
  0.00000000E+00  0.00000000E+00  0.00000000E+00
  0.00000000E+00  0.00000000E+00  0.00000000E+00
  0.00000000E+00  0.00000000E+00  0.00000000E+00
  0.00000000E+00  0.00000000E+00  0.00000000E+00
  0.00000000E+00  0.00000000E+00  0.00000000E+00
  0.00000000E+00  0.00000000E+00  0.00000000E+00
  0.00000000E+00  0.00000000E+00  0.00000000E+00
  0.00000000E+00  0.00000000E+00  0.00000000E+00
  0.00000000E+00  0.00000000E+00  0.00000000E+00
  0.00000000E+00  0.00000000E+00  0.00000000E+00
  0.00000000E+00  0.00000000E+00  0.00000000E+00
  0.00000000E+00  0.00000000E+00  0.00000000E+00
  0.00000000E+00  0.00000000E+00  0.00000000E+00
  0.00000000E+00  0.00000000E+00  0.00000000E+00
  0.00000000E+00  0.00000000E+00  0.00000000E+00
  0.00000000E+00  0.00000000E+00  0.00000000E+00
  0.00000000E+00  0.00000000E+00  0.00000000E+00
  0.00000000E+00  0.00000000E+00  0.00000000E+00
  0.00000000E+00  0.00000000E+00  0.00000000E+00
  0.00000000E+00  0.00000000E+00  0.00000000E+00
  0.00000000E+00  0.00000000E+00  0.00000000E+00
  0.00000000E+00  0.00000000E+00  0.00000000E+00
  0.00000000E+00  0.00000000E+00  0.00000000E+00
  0.00000000E+00  0.00000000E+00  0.00000000E+00
  0.00000000E+00  0.00000000E+00  0.00000000E+00
  0.00000000E+00  0.00000000E+00  0.00000000E+00
  0.00000000E+00  0.00000000E+00  0.00000000E+00
  0.00000000E+00  0.00000000E+00  0.00000000E+00
  0.00000000E+00  0.00000000E+00  0.00000000E+00
  0.00000000E+00  0.00000000E+00  0.00000000E+00
  0.00000000E+00  0.00000000E+00  0.00000000E+00
  0.00000000E+00  0.00000000E+00  0.00000000E+00
  0.00000000E+00  0.00000000E+00  0.00000000E+00
  0.00000000E+00  0.00000000E+00  0.00000000E+00
  0.00000000E+00  0.00000000E+00  0.00000000E+00
  0.00000000E+00  0.00000000E+00  0.00000000E+00
  0.00000000E+00  0.00000000E+00  0.00000000E+00
  0.00000000E+00  0.00000000E+00  0.00000000E+00
  0.00000000E+00  0.00000000E+00  0.00000000E+00
  0.00000000E+00  0.00000000E+00  0.00000000E+00
  0.00000000E+00  0.00000000E+00  0.00000000E+00
  0.00000000E+00  0.00000000E+00  0.00000000E+00
  0.00000000E+00  0.00000000E+00  0.00000000E+00
  0.00000000E+00  0.00000000E+00  0.00000000E+00
  0.00000000E+00  0.00000000E+00  0.00000000E+00
  0.00000000E+00  0.00000000E+00  0.00000000E+00
  0.00000000E+00  0.00000000E+00  0.00000000E+00
  0.00000000E+00  0.00000000E+00  0.00000000E+00
  0.00000000E+00  0.00000000E+00  0.00000000E+00
  0.00000000E+00  0.00000000E+00  0.00000000E+00
  0.00000000E+00  0.00000000E+00  0.00000000E+00
  0.00000000E+00  0.00000000E+00  0.00000000E+00
  0.00000000E+00  0.00000000E+00  0.00000000E+00
  0.00000000E+00  0.00000000E+00  0.00000000E+00
  0.00000000E+00  0.00000000E+00  0.00000000E+00
  0.00000000E+00  0.00000000E+00  0.00000000E+00
  0.00000000E+00  0.00000000E+00  0.00000000E+00
  0.00000000E+00  0.00000000E+00  0.00000000E+00
  0.00000000E+00  0.00000000E+00  0.00000000E+00
  0.00000000E+00  0.00000000E+00  0.00000000E+00
  0.00000000E+00  0.00000000E+00  0.00000000E+00
  0.00000000E+00  0.00000000E+00  0.00000000E+00
  0.00000000E+00  0.00000000E+00  0.00000000E+00
  0.00000000E+00  0.00000000E+00  0.00000000E+00
  0.00000000E+00  0.00000000E+00  0.00000000E+00
  0.00000000E+00  0.00000000E+00  0.00000000E+00
  0.00000000E+00  0.00000000E+00  0.00000000E+00
  0.00000000E+00  0.00000000E+00  0.00000000E+00
  0.00000000E+00  0.00000000E+00  0.00000000E+00
  0.00000000E+00  0.00000000E+00  0.00000000E+00
  0.00000000E+00  0.00000000E+00  0.00000000E+00
  0.00000000E+00  0.00000000E+00  0.00000000E+00
  0.00000000E+00  0.00000000E+00  0.00000000E+00
  0.00000000E+00  0.00000000E+00  0.00000000E+00
