B96 C16                                 
    1.000000000000000     
     9.3620406326943968    0.0731255983652526    4.2797556548046769
     2.7783072481618261    8.9405919200690924    4.2797556475602363
     0.0984913510372950    0.0731256662286605   10.2934148484520041
   B    C 
    96    16
Direct
  0.1601426184439621  0.4002978705848475  0.4002978705847875
  0.1601426184439621  0.4002978705848475  0.9002978705847877
  0.1601426184439621  0.9002978705848476  0.4002978705847875
  0.1601426184439621  0.9002978705848476  0.9002978705847877
  0.6601426184439619  0.4002978705848475  0.4002978705847875
  0.6601426184439619  0.4002978705848475  0.9002978705847877
  0.6601426184439619  0.9002978705848476  0.4002978705847875
  0.6601426184439619  0.9002978705848476  0.9002978705847877
  0.4002978705849219  0.4002978705849971  0.1601426184436008
  0.4002978705849219  0.4002978705849971  0.6601426184436007
  0.4002978705849219  0.9002978705849972  0.1601426184436008
  0.4002978705849219  0.9002978705849972  0.6601426184436007
  0.9002978705849218  0.4002978705849971  0.1601426184436008
  0.9002978705849218  0.4002978705849971  0.6601426184436007
  0.9002978705849218  0.9002978705849972  0.1601426184436008
  0.9002978705849218  0.9002978705849972  0.6601426184436007
  0.4002978705846796  0.1601426184443190  0.4002978705846948
  0.4002978705846796  0.1601426184443190  0.9002978705846947
  0.4002978705846796  0.6601426184443190  0.4002978705846948
  0.4002978705846796  0.6601426184443190  0.9002978705846947
  0.9002978705846796  0.1601426184443190  0.4002978705846948
  0.9002978705846796  0.1601426184443190  0.9002978705846947
  0.9002978705846796  0.6601426184443190  0.4002978705846948
  0.9002978705846796  0.6601426184443190  0.9002978705846947
  0.3398573815560380  0.0997021294151525  0.0997021294152125
  0.3398573815560380  0.0997021294151525  0.5997021294152123
  0.3398573815560380  0.5997021294151524  0.0997021294152125
  0.3398573815560380  0.5997021294151524  0.5997021294152123
  0.8398573815560381  0.0997021294151525  0.0997021294152125
  0.8398573815560381  0.0997021294151525  0.5997021294152123
  0.8398573815560381  0.5997021294151524  0.0997021294152125
  0.8398573815560381  0.5997021294151524  0.5997021294152123
  0.0997021294150781  0.0997021294150028  0.3398573815563992
  0.0997021294150781  0.0997021294150028  0.8398573815563993
  0.0997021294150781  0.5997021294150028  0.3398573815563992
  0.0997021294150781  0.5997021294150028  0.8398573815563993
  0.5997021294150782  0.0997021294150028  0.3398573815563992
  0.5997021294150782  0.0997021294150028  0.8398573815563993
  0.5997021294150782  0.5997021294150028  0.3398573815563992
  0.5997021294150782  0.5997021294150028  0.8398573815563993
  0.0997021294153204  0.3398573815556810  0.0997021294153052
  0.0997021294153204  0.3398573815556810  0.5997021294153053
  0.0997021294153204  0.8398573815556810  0.0997021294153052
  0.0997021294153204  0.8398573815556810  0.5997021294153053
  0.5997021294153204  0.3398573815556810  0.0997021294153052
  0.5997021294153204  0.3398573815556810  0.5997021294153053
  0.5997021294153204  0.8398573815556810  0.0997021294153052
  0.5997021294153204  0.8398573815556810  0.5997021294153053
  0.3321511471956501  0.0002123554850949  0.0002123554852563
  0.3321511471956501  0.0002123554850949  0.5002123554852564
  0.3321511471956501  0.5002123554850948  0.0002123554852563
  0.3321511471956501  0.5002123554850948  0.5002123554852564
  0.8321511471956498  0.0002123554850949  0.0002123554852563
  0.8321511471956498  0.0002123554850949  0.5002123554852564
  0.8321511471956498  0.5002123554850948  0.0002123554852563
  0.8321511471956498  0.5002123554850948  0.5002123554852564
  0.0002123554852396  0.0002123554851718  0.3321511471955453
  0.0002123554852396  0.0002123554851718  0.8321511471955452
  0.0002123554852396  0.5002123554851720  0.3321511471955453
  0.0002123554852396  0.5002123554851720  0.8321511471955452
  0.5002123554852395  0.0002123554851718  0.3321511471955453
  0.5002123554852395  0.0002123554851718  0.8321511471955452
  0.5002123554852395  0.5002123554851720  0.3321511471955453
  0.5002123554852395  0.5002123554851720  0.8321511471955452
  0.0002123554851158  0.3321511471957314  0.0002123554852096
  0.0002123554851158  0.3321511471957314  0.5002123554852095
  0.0002123554851158  0.8321511471957316  0.0002123554852096
  0.0002123554851158  0.8321511471957316  0.5002123554852095
  0.5002123554851157  0.3321511471957314  0.0002123554852096
  0.5002123554851157  0.3321511471957314  0.5002123554852095
  0.5002123554851157  0.8321511471957316  0.0002123554852096
  0.5002123554851157  0.8321511471957316  0.5002123554852095
  0.1678488528043500  0.9997876445149052  0.9997876445147436
  0.1678488528043500  0.9997876445149052  0.4997876445147436
  0.1678488528043500  0.4997876445149051  0.9997876445147436
  0.1678488528043500  0.4997876445149051  0.4997876445147436
  0.6678488528043502  0.9997876445149052  0.9997876445147436
  0.6678488528043502  0.9997876445149052  0.4997876445147436
  0.6678488528043502  0.4997876445149051  0.9997876445147436
  0.6678488528043502  0.4997876445149051  0.4997876445147436
  0.9997876445147605  0.9997876445148280  0.1678488528044547
  0.9997876445147605  0.9997876445148280  0.6678488528044548
  0.9997876445147605  0.4997876445148282  0.1678488528044547
  0.9997876445147605  0.4997876445148282  0.6678488528044548
  0.4997876445147604  0.9997876445148280  0.1678488528044547
  0.4997876445147604  0.9997876445148280  0.6678488528044548
  0.4997876445147604  0.4997876445148282  0.1678488528044547
  0.4997876445147604  0.4997876445148282  0.6678488528044548
  0.9997876445148843  0.1678488528042686  0.9997876445147905
  0.9997876445148843  0.1678488528042686  0.4997876445147905
  0.9997876445148843  0.6678488528042684  0.9997876445147905
  0.9997876445148843  0.6678488528042684  0.4997876445147905
  0.4997876445148842  0.1678488528042686  0.9997876445147905
  0.4997876445148842  0.1678488528042686  0.4997876445147905
  0.4997876445148842  0.6678488528042684  0.9997876445147905
  0.4997876445148842  0.6678488528042684  0.4997876445147905
  0.3150131380060578  0.3150131380062106  0.3150131380059354
  0.3150131380060578  0.3150131380062106  0.8150131380059354
  0.3150131380060578  0.8150131380062104  0.3150131380059354
  0.3150131380060578  0.8150131380062104  0.8150131380059354
  0.8150131380060579  0.3150131380062106  0.3150131380059354
  0.8150131380060579  0.3150131380062106  0.8150131380059354
  0.8150131380060579  0.8150131380062104  0.3150131380059354
  0.8150131380060579  0.8150131380062104  0.8150131380059354
  0.1849868619939423  0.1849868619937894  0.1849868619940646
  0.1849868619939423  0.1849868619937894  0.6849868619940646
  0.1849868619939423  0.6849868619937896  0.1849868619940646
  0.1849868619939423  0.6849868619937896  0.6849868619940646
  0.6849868619939421  0.1849868619937894  0.1849868619940646
  0.6849868619939421  0.1849868619937894  0.6849868619940646
  0.6849868619939421  0.6849868619937896  0.1849868619940646
  0.6849868619939421  0.6849868619937896  0.6849868619940646
 
  0.00000000E+00  0.00000000E+00  0.00000000E+00
  0.00000000E+00  0.00000000E+00  0.00000000E+00
  0.00000000E+00  0.00000000E+00  0.00000000E+00
  0.00000000E+00  0.00000000E+00  0.00000000E+00
  0.00000000E+00  0.00000000E+00  0.00000000E+00
  0.00000000E+00  0.00000000E+00  0.00000000E+00
  0.00000000E+00  0.00000000E+00  0.00000000E+00
  0.00000000E+00  0.00000000E+00  0.00000000E+00
  0.00000000E+00  0.00000000E+00  0.00000000E+00
  0.00000000E+00  0.00000000E+00  0.00000000E+00
  0.00000000E+00  0.00000000E+00  0.00000000E+00
  0.00000000E+00  0.00000000E+00  0.00000000E+00
  0.00000000E+00  0.00000000E+00  0.00000000E+00
  0.00000000E+00  0.00000000E+00  0.00000000E+00
  0.00000000E+00  0.00000000E+00  0.00000000E+00
  0.00000000E+00  0.00000000E+00  0.00000000E+00
  0.00000000E+00  0.00000000E+00  0.00000000E+00
  0.00000000E+00  0.00000000E+00  0.00000000E+00
  0.00000000E+00  0.00000000E+00  0.00000000E+00
  0.00000000E+00  0.00000000E+00  0.00000000E+00
  0.00000000E+00  0.00000000E+00  0.00000000E+00
  0.00000000E+00  0.00000000E+00  0.00000000E+00
  0.00000000E+00  0.00000000E+00  0.00000000E+00
  0.00000000E+00  0.00000000E+00  0.00000000E+00
  0.00000000E+00  0.00000000E+00  0.00000000E+00
  0.00000000E+00  0.00000000E+00  0.00000000E+00
  0.00000000E+00  0.00000000E+00  0.00000000E+00
  0.00000000E+00  0.00000000E+00  0.00000000E+00
  0.00000000E+00  0.00000000E+00  0.00000000E+00
  0.00000000E+00  0.00000000E+00  0.00000000E+00
  0.00000000E+00  0.00000000E+00  0.00000000E+00
  0.00000000E+00  0.00000000E+00  0.00000000E+00
  0.00000000E+00  0.00000000E+00  0.00000000E+00
  0.00000000E+00  0.00000000E+00  0.00000000E+00
  0.00000000E+00  0.00000000E+00  0.00000000E+00
  0.00000000E+00  0.00000000E+00  0.00000000E+00
  0.00000000E+00  0.00000000E+00  0.00000000E+00
  0.00000000E+00  0.00000000E+00  0.00000000E+00
  0.00000000E+00  0.00000000E+00  0.00000000E+00
  0.00000000E+00  0.00000000E+00  0.00000000E+00
  0.00000000E+00  0.00000000E+00  0.00000000E+00
  0.00000000E+00  0.00000000E+00  0.00000000E+00
  0.00000000E+00  0.00000000E+00  0.00000000E+00
  0.00000000E+00  0.00000000E+00  0.00000000E+00
  0.00000000E+00  0.00000000E+00  0.00000000E+00
  0.00000000E+00  0.00000000E+00  0.00000000E+00
  0.00000000E+00  0.00000000E+00  0.00000000E+00
  0.00000000E+00  0.00000000E+00  0.00000000E+00
  0.00000000E+00  0.00000000E+00  0.00000000E+00
  0.00000000E+00  0.00000000E+00  0.00000000E+00
  0.00000000E+00  0.00000000E+00  0.00000000E+00
  0.00000000E+00  0.00000000E+00  0.00000000E+00
  0.00000000E+00  0.00000000E+00  0.00000000E+00
  0.00000000E+00  0.00000000E+00  0.00000000E+00
  0.00000000E+00  0.00000000E+00  0.00000000E+00
  0.00000000E+00  0.00000000E+00  0.00000000E+00
  0.00000000E+00  0.00000000E+00  0.00000000E+00
  0.00000000E+00  0.00000000E+00  0.00000000E+00
  0.00000000E+00  0.00000000E+00  0.00000000E+00
  0.00000000E+00  0.00000000E+00  0.00000000E+00
  0.00000000E+00  0.00000000E+00  0.00000000E+00
  0.00000000E+00  0.00000000E+00  0.00000000E+00
  0.00000000E+00  0.00000000E+00  0.00000000E+00
  0.00000000E+00  0.00000000E+00  0.00000000E+00
  0.00000000E+00  0.00000000E+00  0.00000000E+00
  0.00000000E+00  0.00000000E+00  0.00000000E+00
  0.00000000E+00  0.00000000E+00  0.00000000E+00
  0.00000000E+00  0.00000000E+00  0.00000000E+00
  0.00000000E+00  0.00000000E+00  0.00000000E+00
  0.00000000E+00  0.00000000E+00  0.00000000E+00
  0.00000000E+00  0.00000000E+00  0.00000000E+00
  0.00000000E+00  0.00000000E+00  0.00000000E+00
  0.00000000E+00  0.00000000E+00  0.00000000E+00
  0.00000000E+00  0.00000000E+00  0.00000000E+00
  0.00000000E+00  0.00000000E+00  0.00000000E+00
  0.00000000E+00  0.00000000E+00  0.00000000E+00
  0.00000000E+00  0.00000000E+00  0.00000000E+00
  0.00000000E+00  0.00000000E+00  0.00000000E+00
  0.00000000E+00  0.00000000E+00  0.00000000E+00
  0.00000000E+00  0.00000000E+00  0.00000000E+00
  0.00000000E+00  0.00000000E+00  0.00000000E+00
  0.00000000E+00  0.00000000E+00  0.00000000E+00
  0.00000000E+00  0.00000000E+00  0.00000000E+00
  0.00000000E+00  0.00000000E+00  0.00000000E+00
  0.00000000E+00  0.00000000E+00  0.00000000E+00
  0.00000000E+00  0.00000000E+00  0.00000000E+00
  0.00000000E+00  0.00000000E+00  0.00000000E+00
  0.00000000E+00  0.00000000E+00  0.00000000E+00
  0.00000000E+00  0.00000000E+00  0.00000000E+00
  0.00000000E+00  0.00000000E+00  0.00000000E+00
  0.00000000E+00  0.00000000E+00  0.00000000E+00
  0.00000000E+00  0.00000000E+00  0.00000000E+00
  0.00000000E+00  0.00000000E+00  0.00000000E+00
  0.00000000E+00  0.00000000E+00  0.00000000E+00
  0.00000000E+00  0.00000000E+00  0.00000000E+00
  0.00000000E+00  0.00000000E+00  0.00000000E+00
  0.00000000E+00  0.00000000E+00  0.00000000E+00
  0.00000000E+00  0.00000000E+00  0.00000000E+00
  0.00000000E+00  0.00000000E+00  0.00000000E+00
  0.00000000E+00  0.00000000E+00  0.00000000E+00
  0.00000000E+00  0.00000000E+00  0.00000000E+00
  0.00000000E+00  0.00000000E+00  0.00000000E+00
  0.00000000E+00  0.00000000E+00  0.00000000E+00
  0.00000000E+00  0.00000000E+00  0.00000000E+00
  0.00000000E+00  0.00000000E+00  0.00000000E+00
  0.00000000E+00  0.00000000E+00  0.00000000E+00
  0.00000000E+00  0.00000000E+00  0.00000000E+00
  0.00000000E+00  0.00000000E+00  0.00000000E+00
  0.00000000E+00  0.00000000E+00  0.00000000E+00
  0.00000000E+00  0.00000000E+00  0.00000000E+00
  0.00000000E+00  0.00000000E+00  0.00000000E+00
  0.00000000E+00  0.00000000E+00  0.00000000E+00
