B96 C24                                 
    1.000000000000000     
     9.2495583560498673    0.0496290526211867    4.1948342544622648
     2.6616742119813890    9.1396490653066653    4.3278184431665485
    -0.0693276704746145    0.1030602387247142   10.4561290862401712
   B    C 
    96    24
Direct
  0.1576440593837832  0.4043112374633221  0.4043112717042025
  0.1576440593837832  0.4043112374633221  0.9043112717042026
  0.1576440593837832  0.9043112374633222  0.4043112717042025
  0.1576440593837832  0.9043112374633222  0.9043112717042026
  0.6576440593837835  0.4043112374633221  0.4043112717042025
  0.6576440593837835  0.4043112374633221  0.9043112717042026
  0.6576440593837835  0.9043112374633222  0.4043112717042025
  0.6576440593837835  0.9043112374633222  0.9043112717042026
  0.4013931732453375  0.4013919590011126  0.1578999355840391
  0.4013931732453375  0.4013919590011126  0.6578999355840395
  0.4013931732453375  0.9013919590011125  0.1578999355840391
  0.4013931732453375  0.9013919590011125  0.6578999355840395
  0.9013931732453373  0.4013919590011126  0.1578999355840391
  0.9013931732453373  0.4013919590011126  0.6578999355840395
  0.9013931732453373  0.9013919590011125  0.1578999355840391
  0.9013931732453373  0.9013919590011125  0.6578999355840395
  0.4013929524416818  0.1578995681799092  0.4013905916664474
  0.4013929524416818  0.1578995681799092  0.9013905916664473
  0.4013929524416818  0.6578995681799091  0.4013905916664474
  0.4013929524416818  0.6578995681799091  0.9013905916664473
  0.9013929524416819  0.1578995681799092  0.4013905916664474
  0.9013929524416819  0.1578995681799092  0.9013905916664472
  0.9013929524416819  0.6578995681799091  0.4013905916664474
  0.9013929524416819  0.6578995681799091  0.9013905916664472
  0.3421321554657115  0.0959594401090071  0.0959616279206056
  0.3421321554657115  0.0959594401090071  0.5959616279206059
  0.3421321554657115  0.5959594401090068  0.0959616279206056
  0.3421321554657115  0.5959594401090068  0.5959616279206059
  0.8421321554657113  0.0959594401090071  0.0959616279206056
  0.8421321554657113  0.0959594401090071  0.5959616279206059
  0.8421321554657113  0.5959594401090068  0.0959616279206056
  0.8421321554657113  0.5959594401090068  0.5959616279206059
  0.0991243044205022  0.0976280609019882  0.3434476502039454
  0.0991243044205022  0.0976280609019882  0.8434476502039455
  0.0991243044205022  0.5976280609019884  0.3434476502039454
  0.0991243044205022  0.5976280609019884  0.8434476502039455
  0.5991243044205024  0.0976280609019882  0.3434476502039454
  0.5991243044205024  0.0976280609019882  0.8434476502039455
  0.5991243044205024  0.5976280609019884  0.3434476502039454
  0.5991243044205024  0.5976280609019884  0.8434476502039455
  0.0991236025708111  0.3434465317137339  0.0976277135365238
  0.0991236025708111  0.3434465317137339  0.5976277135365240
  0.0991236025708111  0.8434465317137341  0.0976277135365238
  0.0991236025708111  0.8434465317137341  0.5976277135365240
  0.5991236025708110  0.3434465317137339  0.0976277135365238
  0.5991236025708110  0.3434465317137339  0.5976277135365240
  0.5991236025708110  0.8434465317137341  0.0976277135365238
  0.5991236025708110  0.8434465317137341  0.5976277135365240
  0.4941977462960568  0.4981920852739552  0.3372817115576073
  0.4941977462960568  0.4981920852739552  0.8372817115576074
  0.4941977462960568  0.9981920852739554  0.3372817115576073
  0.4941977462960568  0.9981920852739554  0.8372817115576074
  0.9941977462960570  0.4981920852739552  0.3372817115576073
  0.9941977462960570  0.4981920852739552  0.8372817115576074
  0.9941977462960570  0.9981920852739554  0.3372817115576073
  0.9941977462960570  0.9981920852739554  0.8372817115576074
  0.4941986601222200  0.3372799187373849  0.4981929744670620
  0.4941986601222200  0.3372799187373849  0.9981929744670619
  0.4941986601222200  0.8372799187373848  0.4981929744670620
  0.4941986601222200  0.8372799187373848  0.9981929744670619
  0.9941986601222196  0.3372799187373849  0.4981929744670620
  0.9941986601222196  0.3372799187373849  0.9981929744670619
  0.9941986601222196  0.8372799187373848  0.4981929744670620
  0.9941986601222196  0.8372799187373848  0.9981929744670619
  0.1704899555301529  0.0032792516863196  0.0032793997288793
  0.1704899555301529  0.0032792516863196  0.5032793997288795
  0.1704899555301529  0.5032792516863196  0.0032793997288793
  0.1704899555301529  0.5032792516863196  0.5032793997288795
  0.6704899555301528  0.0032792516863196  0.0032793997288793
  0.6704899555301528  0.0032792516863196  0.5032793997288795
  0.6704899555301528  0.5032792516863196  0.0032793997288793
  0.6704899555301528  0.5032792516863196  0.5032793997288795
  0.0040696632531485  0.0023062593607568  0.1646658612003356
  0.0040696632531485  0.0023062593607568  0.6646658612003356
  0.0040696632531485  0.5023062593607567  0.1646658612003356
  0.0040696632531485  0.5023062593607567  0.6646658612003356
  0.5040696632531485  0.0023062593607568  0.1646658612003356
  0.5040696632531485  0.0023062593607568  0.6646658612003356
  0.5040696632531485  0.5023062593607567  0.1646658612003356
  0.5040696632531485  0.5023062593607567  0.6646658612003356
  0.0040681388812022  0.1646672688866105  0.0023047474094476
  0.0040681388812022  0.1646672688866105  0.5023047474094474
  0.0040681388812022  0.6646672688866103  0.0023047474094476
  0.0040681388812022  0.6646672688866103  0.5023047474094474
  0.5040681388812022  0.1646672688866105  0.0023047474094476
  0.5040681388812022  0.1646672688866105  0.5023047474094474
  0.5040681388812022  0.6646672688866103  0.0023047474094476
  0.5040681388812022  0.6646672688866103  0.5023047474094474
  0.2464601327583949  0.2490219666392959  0.2490215170607178
  0.2464601327583949  0.2490219666392959  0.7490215170607177
  0.2464601327583949  0.7490219666392955  0.2490215170607178
  0.2464601327583949  0.7490219666392955  0.7490215170607177
  0.7464601327583951  0.2490219666392959  0.2490215170607178
  0.7464601327583951  0.2490219666392959  0.7490215170607177
  0.7464601327583951  0.7490219666392955  0.2490215170607178
  0.7464601327583951  0.7490219666392955  0.7490215170607177
  0.3393397681223252  0.4977957628386132  0.4977937725209533
  0.3393397681223252  0.4977957628386132  0.9977937725209534
  0.3393397681223252  0.9977957628386130  0.4977937725209533
  0.3393397681223252  0.9977957628386130  0.9977937725209534
  0.8393397681223252  0.4977957628386132  0.4977937725209533
  0.8393397681223252  0.4977957628386132  0.9977937725209534
  0.8393397681223252  0.9977957628386130  0.4977937725209533
  0.8393397681223252  0.9977957628386130  0.9977937725209534
  0.3038314153102837  0.3095919648877179  0.3095906721974475
  0.3038314153102837  0.3095919648877179  0.8095906721974474
  0.3038314153102837  0.8095919648877180  0.3095906721974475
  0.3038314153102837  0.8095919648877180  0.8095906721974474
  0.8038314153102835  0.3095919648877179  0.3095906721974475
  0.8038314153102835  0.3095919648877179  0.8095906721974474
  0.8038314153102835  0.8095919648877180  0.3095906721974475
  0.8038314153102835  0.8095919648877180  0.8095906721974474
  0.1925342721983956  0.1872297243202844  0.1872315532417974
  0.1925342721983956  0.1872297243202844  0.6872315532417974
  0.1925342721983956  0.6872297243202845  0.1872315532417974
  0.1925342721983956  0.6872297243202845  0.6872315532417974
  0.6925342721983956  0.1872297243202844  0.1872315532417974
  0.6925342721983956  0.1872297243202844  0.6872315532417974
  0.6925342721983956  0.6872297243202845  0.1872315532417974
  0.6925342721983956  0.6872297243202845  0.6872315532417974
 
  0.00000000E+00  0.00000000E+00  0.00000000E+00
  0.00000000E+00  0.00000000E+00  0.00000000E+00
  0.00000000E+00  0.00000000E+00  0.00000000E+00
  0.00000000E+00  0.00000000E+00  0.00000000E+00
  0.00000000E+00  0.00000000E+00  0.00000000E+00
  0.00000000E+00  0.00000000E+00  0.00000000E+00
  0.00000000E+00  0.00000000E+00  0.00000000E+00
  0.00000000E+00  0.00000000E+00  0.00000000E+00
  0.00000000E+00  0.00000000E+00  0.00000000E+00
  0.00000000E+00  0.00000000E+00  0.00000000E+00
  0.00000000E+00  0.00000000E+00  0.00000000E+00
  0.00000000E+00  0.00000000E+00  0.00000000E+00
  0.00000000E+00  0.00000000E+00  0.00000000E+00
  0.00000000E+00  0.00000000E+00  0.00000000E+00
  0.00000000E+00  0.00000000E+00  0.00000000E+00
  0.00000000E+00  0.00000000E+00  0.00000000E+00
  0.00000000E+00  0.00000000E+00  0.00000000E+00
  0.00000000E+00  0.00000000E+00  0.00000000E+00
  0.00000000E+00  0.00000000E+00  0.00000000E+00
  0.00000000E+00  0.00000000E+00  0.00000000E+00
  0.00000000E+00  0.00000000E+00  0.00000000E+00
  0.00000000E+00  0.00000000E+00  0.00000000E+00
  0.00000000E+00  0.00000000E+00  0.00000000E+00
  0.00000000E+00  0.00000000E+00  0.00000000E+00
  0.00000000E+00  0.00000000E+00  0.00000000E+00
  0.00000000E+00  0.00000000E+00  0.00000000E+00
  0.00000000E+00  0.00000000E+00  0.00000000E+00
  0.00000000E+00  0.00000000E+00  0.00000000E+00
  0.00000000E+00  0.00000000E+00  0.00000000E+00
  0.00000000E+00  0.00000000E+00  0.00000000E+00
  0.00000000E+00  0.00000000E+00  0.00000000E+00
  0.00000000E+00  0.00000000E+00  0.00000000E+00
  0.00000000E+00  0.00000000E+00  0.00000000E+00
  0.00000000E+00  0.00000000E+00  0.00000000E+00
  0.00000000E+00  0.00000000E+00  0.00000000E+00
  0.00000000E+00  0.00000000E+00  0.00000000E+00
  0.00000000E+00  0.00000000E+00  0.00000000E+00
  0.00000000E+00  0.00000000E+00  0.00000000E+00
  0.00000000E+00  0.00000000E+00  0.00000000E+00
  0.00000000E+00  0.00000000E+00  0.00000000E+00
  0.00000000E+00  0.00000000E+00  0.00000000E+00
  0.00000000E+00  0.00000000E+00  0.00000000E+00
  0.00000000E+00  0.00000000E+00  0.00000000E+00
  0.00000000E+00  0.00000000E+00  0.00000000E+00
  0.00000000E+00  0.00000000E+00  0.00000000E+00
  0.00000000E+00  0.00000000E+00  0.00000000E+00
  0.00000000E+00  0.00000000E+00  0.00000000E+00
  0.00000000E+00  0.00000000E+00  0.00000000E+00
  0.00000000E+00  0.00000000E+00  0.00000000E+00
  0.00000000E+00  0.00000000E+00  0.00000000E+00
  0.00000000E+00  0.00000000E+00  0.00000000E+00
  0.00000000E+00  0.00000000E+00  0.00000000E+00
  0.00000000E+00  0.00000000E+00  0.00000000E+00
  0.00000000E+00  0.00000000E+00  0.00000000E+00
  0.00000000E+00  0.00000000E+00  0.00000000E+00
  0.00000000E+00  0.00000000E+00  0.00000000E+00
  0.00000000E+00  0.00000000E+00  0.00000000E+00
  0.00000000E+00  0.00000000E+00  0.00000000E+00
  0.00000000E+00  0.00000000E+00  0.00000000E+00
  0.00000000E+00  0.00000000E+00  0.00000000E+00
  0.00000000E+00  0.00000000E+00  0.00000000E+00
  0.00000000E+00  0.00000000E+00  0.00000000E+00
  0.00000000E+00  0.00000000E+00  0.00000000E+00
  0.00000000E+00  0.00000000E+00  0.00000000E+00
  0.00000000E+00  0.00000000E+00  0.00000000E+00
  0.00000000E+00  0.00000000E+00  0.00000000E+00
  0.00000000E+00  0.00000000E+00  0.00000000E+00
  0.00000000E+00  0.00000000E+00  0.00000000E+00
  0.00000000E+00  0.00000000E+00  0.00000000E+00
  0.00000000E+00  0.00000000E+00  0.00000000E+00
  0.00000000E+00  0.00000000E+00  0.00000000E+00
  0.00000000E+00  0.00000000E+00  0.00000000E+00
  0.00000000E+00  0.00000000E+00  0.00000000E+00
  0.00000000E+00  0.00000000E+00  0.00000000E+00
  0.00000000E+00  0.00000000E+00  0.00000000E+00
  0.00000000E+00  0.00000000E+00  0.00000000E+00
  0.00000000E+00  0.00000000E+00  0.00000000E+00
  0.00000000E+00  0.00000000E+00  0.00000000E+00
  0.00000000E+00  0.00000000E+00  0.00000000E+00
  0.00000000E+00  0.00000000E+00  0.00000000E+00
  0.00000000E+00  0.00000000E+00  0.00000000E+00
  0.00000000E+00  0.00000000E+00  0.00000000E+00
  0.00000000E+00  0.00000000E+00  0.00000000E+00
  0.00000000E+00  0.00000000E+00  0.00000000E+00
  0.00000000E+00  0.00000000E+00  0.00000000E+00
  0.00000000E+00  0.00000000E+00  0.00000000E+00
  0.00000000E+00  0.00000000E+00  0.00000000E+00
  0.00000000E+00  0.00000000E+00  0.00000000E+00
  0.00000000E+00  0.00000000E+00  0.00000000E+00
  0.00000000E+00  0.00000000E+00  0.00000000E+00
  0.00000000E+00  0.00000000E+00  0.00000000E+00
  0.00000000E+00  0.00000000E+00  0.00000000E+00
  0.00000000E+00  0.00000000E+00  0.00000000E+00
  0.00000000E+00  0.00000000E+00  0.00000000E+00
  0.00000000E+00  0.00000000E+00  0.00000000E+00
  0.00000000E+00  0.00000000E+00  0.00000000E+00
  0.00000000E+00  0.00000000E+00  0.00000000E+00
  0.00000000E+00  0.00000000E+00  0.00000000E+00
  0.00000000E+00  0.00000000E+00  0.00000000E+00
  0.00000000E+00  0.00000000E+00  0.00000000E+00
  0.00000000E+00  0.00000000E+00  0.00000000E+00
  0.00000000E+00  0.00000000E+00  0.00000000E+00
  0.00000000E+00  0.00000000E+00  0.00000000E+00
  0.00000000E+00  0.00000000E+00  0.00000000E+00
  0.00000000E+00  0.00000000E+00  0.00000000E+00
  0.00000000E+00  0.00000000E+00  0.00000000E+00
  0.00000000E+00  0.00000000E+00  0.00000000E+00
  0.00000000E+00  0.00000000E+00  0.00000000E+00
  0.00000000E+00  0.00000000E+00  0.00000000E+00
  0.00000000E+00  0.00000000E+00  0.00000000E+00
  0.00000000E+00  0.00000000E+00  0.00000000E+00
  0.00000000E+00  0.00000000E+00  0.00000000E+00
  0.00000000E+00  0.00000000E+00  0.00000000E+00
  0.00000000E+00  0.00000000E+00  0.00000000E+00
  0.00000000E+00  0.00000000E+00  0.00000000E+00
  0.00000000E+00  0.00000000E+00  0.00000000E+00
  0.00000000E+00  0.00000000E+00  0.00000000E+00
  0.00000000E+00  0.00000000E+00  0.00000000E+00
  0.00000000E+00  0.00000000E+00  0.00000000E+00
  0.00000000E+00  0.00000000E+00  0.00000000E+00
