B96 C24
1.0
9.331021 0.050189 4.191143
2.703382 9.099570 4.285847
-0.051956 0.072033 10.408063
B C
96 24
direct
0.157923 0.403758 0.403758 B
0.157923 0.403758 0.903758 B
0.157923 0.903758 0.403758 B
0.157923 0.903758 0.903758 B
0.657923 0.403758 0.403758 B
0.657923 0.403758 0.903758 B
0.657923 0.903758 0.403758 B
0.657923 0.903758 0.903758 B
0.401632 0.402338 0.157220 B
0.401632 0.402338 0.657220 B
0.401632 0.902338 0.157220 B
0.401632 0.902338 0.657220 B
0.901632 0.402338 0.157220 B
0.901632 0.402338 0.657220 B
0.901632 0.902338 0.157220 B
0.901632 0.902338 0.657220 B
0.401632 0.157220 0.402338 B
0.401632 0.157220 0.902338 B
0.401632 0.657220 0.402338 B
0.401632 0.657220 0.902338 B
0.901632 0.157220 0.402338 B
0.901632 0.157220 0.902338 B
0.901632 0.657220 0.402338 B
0.901632 0.657220 0.902338 B
0.341366 0.096665 0.096665 B
0.341366 0.096665 0.596665 B
0.341366 0.596665 0.096665 B
0.341366 0.596665 0.596665 B
0.841366 0.096665 0.096665 B
0.841366 0.096665 0.596665 B
0.841366 0.596665 0.096665 B
0.841366 0.596665 0.596665 B
0.098700 0.096836 0.343711 B
0.098700 0.096836 0.843711 B
0.098700 0.596836 0.343711 B
0.098700 0.596836 0.843711 B
0.598700 0.096836 0.343711 B
0.598700 0.096836 0.843711 B
0.598700 0.596836 0.343711 B
0.598700 0.596836 0.843711 B
0.098700 0.343711 0.096836 B
0.098700 0.343711 0.596836 B
0.098700 0.843711 0.096836 B
0.098700 0.843711 0.596836 B
0.598700 0.343711 0.096836 B
0.598700 0.343711 0.596836 B
0.598700 0.843711 0.096836 B
0.598700 0.843711 0.596836 B
0.494447 0.497399 0.336798 B
0.494447 0.497399 0.836798 B
0.494447 0.997399 0.336798 B
0.494447 0.997399 0.836798 B
0.994447 0.497399 0.336798 B
0.994447 0.497399 0.836798 B
0.994447 0.997399 0.336798 B
0.994447 0.997399 0.836798 B
0.494447 0.336798 0.497399 B
0.494447 0.336798 0.997399 B
0.494447 0.836798 0.497399 B
0.494447 0.836798 0.997399 B
0.994447 0.336798 0.497399 B
0.994447 0.336798 0.997399 B
0.994447 0.836798 0.497399 B
0.994447 0.836798 0.997399 B
0.170795 0.002950 0.002950 B
0.170795 0.002950 0.502950 B
0.170795 0.502950 0.002950 B
0.170795 0.502950 0.502950 B
0.670795 0.002950 0.002950 B
0.670795 0.002950 0.502950 B
0.670795 0.502950 0.002950 B
0.670795 0.502950 0.502950 B
0.003475 0.002755 0.164362 B
0.003475 0.002755 0.664362 B
0.003475 0.502755 0.164362 B
0.003475 0.502755 0.664362 B
0.503475 0.002755 0.164362 B
0.503475 0.002755 0.664362 B
0.503475 0.502755 0.164362 B
0.503475 0.502755 0.664362 B
0.003475 0.164362 0.002755 B
0.003475 0.164362 0.502755 B
0.003475 0.664362 0.002755 B
0.003475 0.664362 0.502755 B
0.503475 0.164362 0.002755 B
0.503475 0.164362 0.502755 B
0.503475 0.664362 0.002755 B
0.503475 0.664362 0.502755 B
0.247995 0.249009 0.249009 B
0.247995 0.249009 0.749009 B
0.247995 0.749009 0.249009 B
0.247995 0.749009 0.749009 B
0.747995 0.249009 0.249009 B
0.747995 0.249009 0.749009 B
0.747995 0.749009 0.249009 B
0.747995 0.749009 0.749009 B
0.338336 0.497928 0.497928 C
0.338336 0.497928 0.997928 C
0.338336 0.997928 0.497928 C
0.338336 0.997928 0.997928 C
0.838336 0.497928 0.497928 C
0.838336 0.497928 0.997928 C
0.838336 0.997928 0.497928 C
0.838336 0.997928 0.997928 C
0.306088 0.309437 0.309437 C
0.306088 0.309437 0.809437 C
0.306088 0.809437 0.309437 C
0.306088 0.809437 0.809437 C
0.806088 0.309437 0.309437 C
0.806088 0.309437 0.809437 C
0.806088 0.809437 0.309437 C
0.806088 0.809437 0.809437 C
0.190989 0.188835 0.188835 C
0.190989 0.188835 0.688835 C
0.190989 0.688835 0.188835 C
0.190989 0.688835 0.688835 C
0.690989 0.188835 0.188835 C
0.690989 0.188835 0.688835 C
0.690989 0.688835 0.188835 C
0.690989 0.688835 0.688835 C
